POSCAR file written by OVITO Basic 3.4.1
   1.00000000000000     
     5.5143275260999998    0.0000000000000000    0.0000000000000000
    -2.7571637629999999    4.7755477223999998    0.0000000000000000
     0.0000000000000000    0.0000000000000000   25.0000000000000000
   Au   Mo   S 
     4     3     6
Direct
  0.0000002588235310  0.0000001201476098  0.2926528472329862
  0.4998131578470388  0.4998128799976910  0.2909884435123541
  0.5001873499767076  0.0000000062525699  0.2909884144613304
  0.0000002163838421  0.5001870581586547  0.2909884033278735
 -0.0000000097317965  0.6664940118652031  0.4754242926905409
  0.6664940267340587 -0.0000000923227629  0.4754242667271712
  0.3335058840040911  0.3335046064582464  0.4754245296698278
 -0.0000037854731569  0.0000060067642319  0.5377697094600410
  0.6666647114914965  0.3333288086020599  0.5377952695716748
  0.3333378568603707  0.6666682206932998  0.5377951748355395
 -0.0000012923901755  0.0000023973077389  0.4132842979957526
  0.6666639342184845  0.3333287913656185  0.4131297935715124
  0.3333377802316728  0.6666672438444172  0.4131298973434018