  PAW_PBE Au 04Oct2007                   
   11.0000000000000     
 parameters from PSCTR are:
   VRHFIN =Au: s1d10
   LEXCH  = PE
   EATOM  =   926.0867 eV,   68.0654 Ry

   TITEL  = PAW_PBE Au 04Oct2007
   LULTRA =        F    use ultrasoft PP ?
   IUNSCR =        1    unscreen: 0-lin 1-nonlin 2-no
   RPACOR =    2.330    partial core radius
   POMASS =  196.966; ZVAL   =   11.000    mass and valenz
   RCORE  =    2.500    outmost cutoff radius
   RWIGS  =    2.840; RWIGS  =    1.503    wigner-seitz radius (au A)
   ENMAX  =  229.943; ENMIN  =  172.457 eV
   ICORE  =        3    local potential
   LCOR   =        T    correct aug charges
   LPAW   =        T    paw PP
   EAUG   =  356.670
   DEXC   =    0.000
   RMAX   =    2.562    core radius for proj-oper
   RAUG   =    1.300    factor for augmentation sphere
   RDEP   =    2.598    radius for radial grids
   RDEPT  =    2.193    core radius for aug-charge
 
   Atomic configuration
   16 entries
     n  l   j            E        occ.
     1  0  0.50    -80748.5001   2.0000
     2  0  0.50    -14244.7466   2.0000
     2  1  1.50    -12310.9591   6.0000
     3  0  0.50     -3362.1768   2.0000
     3  1  1.50     -2801.5463   6.0000
     3  2  2.50     -2203.8206  10.0000
     4  0  0.50      -729.8168   2.0000
     4  1  1.50      -546.0527   6.0000
     4  2  2.50      -325.7302  10.0000
     4  3  3.50       -81.1472  14.0000
     5  0  0.50      -108.3201   2.0000
     5  1  1.50       -59.7479   6.0000
     5  2  2.50        -6.8783  10.0000
     6  0  0.50        -5.7602   1.0000
     6  1  1.50        -6.8029   0.0000
     5  3  2.50        -1.3606   0.0000
   Description
     l       E           TYP  RCUT    TYP  RCUT
     2     -6.8782861     23  2.500
     2     -8.2388687     23  2.500
     0     -5.7601759     23  2.500
     0     -0.8493231     23  2.500
     1     -2.7211652     23  2.500
     1     27.2116520     23  2.500
     3     -1.3605826     23  2.500
   Error from kinetic energy argument (eV)
   NDATA  =      100
   STEP   =   20.000   1.050
  211.      208.      206.      203.      201.      197.      192.      190.
  185.      180.      178.      172.      167.      161.      155.      150.
  143.      137.      131.      122.      116.      110.      101.      94.8
  89.0      80.6      72.5      67.4      60.0      53.1      46.6      40.7
  35.2      30.3      25.8      21.8      17.2      14.2      10.9      8.81
  6.51      4.71      3.32      2.28      1.52     0.978     0.610     0.325
 0.193     0.107     0.716E-01 0.620E-01 0.597E-01 0.594E-01 0.558E-01 0.494E-01
 0.409E-01 0.299E-01 0.202E-01 0.131E-01 0.870E-02 0.658E-02 0.589E-02 0.580E-02
 0.568E-02 0.514E-02 0.421E-02 0.313E-02 0.208E-02 0.149E-02 0.120E-02 0.113E-02
 0.112E-02 0.103E-02 0.829E-03 0.620E-03 0.436E-03 0.343E-03 0.320E-03 0.315E-03
 0.281E-03 0.220E-03 0.160E-03 0.122E-03 0.114E-03 0.111E-03 0.967E-04 0.722E-04
 0.538E-04 0.480E-04 0.468E-04 0.412E-04 0.305E-04 0.240E-04 0.225E-04 0.212E-04
 0.168E-04 0.129E-04 0.117E-04 0.111E-04
END of PSCTR-controll parameters
 local part
   75.5890395431569     
  0.10589055E+03  0.10587950E+03  0.10586221E+03  0.10583343E+03  0.10579316E+03
  0.10574145E+03  0.10567831E+03  0.10560376E+03  0.10551779E+03  0.10542037E+03
  0.10531146E+03  0.10519096E+03  0.10505878E+03  0.10491478E+03  0.10475881E+03
  0.10459070E+03  0.10441026E+03  0.10421729E+03  0.10401159E+03  0.10379296E+03
  0.10356116E+03  0.10331598E+03  0.10305717E+03  0.10278451E+03  0.10249772E+03
  0.10219656E+03  0.10188073E+03  0.10154997E+03  0.10120396E+03  0.10084241E+03
  0.10046501E+03  0.10007145E+03  0.99661410E+02  0.99234574E+02  0.98790626E+02
  0.98329252E+02  0.97850138E+02  0.97352980E+02  0.96837474E+02  0.96303329E+02
  0.95750261E+02  0.95178001E+02  0.94586295E+02  0.93974907E+02  0.93343622E+02
  0.92692249E+02  0.92020622E+02  0.91328603E+02  0.90616087E+02  0.89882999E+02
  0.89129298E+02  0.88354983E+02  0.87560089E+02  0.86744693E+02  0.85908915E+02
  0.85052919E+02  0.84176917E+02  0.83281169E+02  0.82365983E+02  0.81431719E+02
  0.80478789E+02  0.79507656E+02  0.78518835E+02  0.77512893E+02  0.76490449E+02
  0.75452176E+02  0.74398794E+02  0.73331077E+02  0.72249845E+02  0.71155969E+02
  0.70050365E+02  0.68933994E+02  0.67807858E+02  0.66672999E+02  0.65530499E+02
  0.64381469E+02  0.63227054E+02  0.62068427E+02  0.60906781E+02  0.59743333E+02
  0.58579315E+02  0.57415971E+02  0.56254554E+02  0.55096321E+02  0.53942528E+02
  0.52794429E+02  0.51653266E+02  0.50520268E+02  0.49396650E+02  0.48283598E+02
  0.47182278E+02  0.46093821E+02  0.45019325E+02  0.43959849E+02  0.42916408E+02
  0.41889974E+02  0.40881467E+02  0.39891757E+02  0.38921655E+02  0.37971916E+02
  0.37043233E+02  0.36136238E+02  0.35251495E+02  0.34389503E+02  0.33550693E+02
  0.32735428E+02  0.31944001E+02  0.31176634E+02  0.30433483E+02  0.29714632E+02
  0.29020097E+02  0.28349828E+02  0.27703708E+02  0.27081554E+02  0.26483122E+02
  0.25908107E+02  0.25356145E+02  0.24826818E+02  0.24319654E+02  0.23834133E+02
  0.23369688E+02  0.22925711E+02  0.22501554E+02  0.22096534E+02  0.21709937E+02
  0.21341022E+02  0.20989026E+02  0.20653164E+02  0.20332639E+02  0.20026641E+02
  0.19734355E+02  0.19454961E+02  0.19187641E+02  0.18931582E+02  0.18685980E+02
  0.18450043E+02  0.18222995E+02  0.18004076E+02  0.17792551E+02  0.17587708E+02
  0.17388863E+02  0.17195359E+02  0.17006575E+02  0.16821919E+02  0.16640836E+02
  0.16462810E+02  0.16287358E+02  0.16114039E+02  0.15942451E+02  0.15772230E+02
  0.15603052E+02  0.15434634E+02  0.15266729E+02  0.15099131E+02  0.14931669E+02
  0.14764212E+02  0.14596660E+02  0.14428950E+02  0.14261050E+02  0.14092957E+02
  0.13924700E+02  0.13756331E+02  0.13587928E+02  0.13419590E+02  0.13251438E+02
  0.13083608E+02  0.12916252E+02  0.12749535E+02  0.12583633E+02  0.12418728E+02
  0.12255009E+02  0.12092668E+02  0.11931900E+02  0.11772897E+02  0.11615848E+02
  0.11460939E+02  0.11308348E+02  0.11158244E+02  0.11010788E+02  0.10866129E+02
  0.10724402E+02  0.10585730E+02  0.10450220E+02  0.10317966E+02  0.10189044E+02
  0.10063515E+02  0.99414205E+01  0.98227887E+01  0.97076292E+01  0.95959348E+01
  0.94876824E+01  0.93828327E+01  0.92813308E+01  0.91831075E+01  0.90880796E+01
  0.89961506E+01  0.89072126E+01  0.88211464E+01  0.87378231E+01  0.86571054E+01
  0.85788484E+01  0.85029013E+01  0.84291084E+01  0.83573106E+01  0.82873463E+01
  0.82190533E+01  0.81522697E+01  0.80868351E+01  0.80225920E+01  0.79593867E+01
  0.78970707E+01  0.78355015E+01  0.77745433E+01  0.77140685E+01  0.76539575E+01
  0.75941003E+01  0.75343966E+01  0.74747560E+01  0.74150991E+01  0.73553574E+01
  0.72954732E+01  0.72354004E+01  0.71751036E+01  0.71145590E+01  0.70537532E+01
  0.69926835E+01  0.69313573E+01  0.68697917E+01  0.68080131E+01  0.67460562E+01
  0.66839638E+01  0.66217857E+01  0.65595784E+01  0.64974040E+01  0.64353295E+01
  0.63734258E+01  0.63117671E+01  0.62504299E+01  0.61894921E+01  0.61290323E+01
  0.60691287E+01  0.60098585E+01  0.59512970E+01  0.58935170E+01  0.58365880E+01
  0.57805757E+01  0.57255410E+01  0.56715401E+01  0.56186234E+01  0.55668355E+01
  0.55162146E+01  0.54667921E+01  0.54185930E+01  0.53716347E+01  0.53259279E+01
  0.52814761E+01  0.52382757E+01  0.51963160E+01  0.51555799E+01  0.51160434E+01
  0.50776766E+01  0.50404435E+01  0.50043026E+01  0.49692074E+01  0.49351067E+01
  0.49019453E+01  0.48696642E+01  0.48382016E+01  0.48074931E+01  0.47774725E+01
  0.47480723E+01  0.47192244E+01  0.46908605E+01  0.46629130E+01  0.46353151E+01
  0.46080019E+01  0.45809102E+01  0.45539799E+01  0.45271534E+01  0.45003769E+01
  0.44736004E+01  0.44467780E+01  0.44198683E+01  0.43928346E+01  0.43656454E+01
  0.43382739E+01  0.43106988E+01  0.42829040E+01  0.42548786E+01  0.42266169E+01
  0.41981183E+01  0.41693872E+01  0.41404328E+01  0.41112689E+01  0.40819137E+01
  0.40523894E+01  0.40227218E+01  0.39929404E+01  0.39630776E+01  0.39331684E+01
  0.39032499E+01  0.38733614E+01  0.38435432E+01  0.38138366E+01  0.37842835E+01
  0.37549258E+01  0.37258051E+01  0.36969623E+01  0.36684370E+01  0.36402673E+01
  0.36124897E+01  0.35851382E+01  0.35582445E+01  0.35318373E+01  0.35059426E+01
  0.34805828E+01  0.34557770E+01  0.34315410E+01  0.34078864E+01  0.33848215E+01
  0.33623508E+01  0.33404748E+01  0.33191906E+01  0.32984913E+01  0.32783668E+01
  0.32588035E+01  0.32397845E+01  0.32212899E+01  0.32032969E+01  0.31857801E+01
  0.31687118E+01  0.31520624E+01  0.31358004E+01  0.31198928E+01  0.31043055E+01
  0.30890038E+01  0.30739523E+01  0.30591156E+01  0.30444582E+01  0.30299452E+01
  0.30155426E+01  0.30012173E+01  0.29869373E+01  0.29726726E+01  0.29583947E+01
  0.29440772E+01  0.29296961E+01  0.29152295E+01  0.29006584E+01  0.28859662E+01
  0.28711393E+01  0.28561667E+01  0.28410404E+01  0.28257552E+01  0.28103089E+01
  0.27947019E+01  0.27789376E+01  0.27630217E+01  0.27469629E+01  0.27307720E+01
  0.27144622E+01  0.26980486E+01  0.26815485E+01  0.26649808E+01  0.26483655E+01
  0.26317244E+01  0.26150798E+01  0.25984551E+01  0.25818740E+01  0.25653606E+01
  0.25489389E+01  0.25326329E+01  0.25164659E+01  0.25004606E+01  0.24846391E+01
  0.24690221E+01  0.24536292E+01  0.24384783E+01  0.24235861E+01  0.24089672E+01
  0.23946345E+01  0.23805988E+01  0.23668690E+01  0.23534518E+01  0.23403517E+01
  0.23275713E+01  0.23151107E+01  0.23029681E+01  0.22911396E+01  0.22796192E+01
  0.22683989E+01  0.22574689E+01  0.22468178E+01  0.22364322E+01  0.22262976E+01
  0.22163981E+01  0.22067165E+01  0.21972348E+01  0.21879341E+01  0.21787949E+01
  0.21697974E+01  0.21609215E+01  0.21521468E+01  0.21434534E+01  0.21348215E+01
  0.21262318E+01  0.21176656E+01  0.21091052E+01  0.21005337E+01  0.20919353E+01
  0.20832955E+01  0.20746010E+01  0.20658403E+01  0.20570029E+01  0.20480804E+01
  0.20390656E+01  0.20299532E+01  0.20207395E+01  0.20114225E+01  0.20020018E+01
  0.19924789E+01  0.19828565E+01  0.19731391E+01  0.19633327E+01  0.19534446E+01
  0.19434833E+01  0.19334586E+01  0.19233814E+01  0.19132635E+01  0.19031172E+01
  0.18929559E+01  0.18827933E+01  0.18726435E+01  0.18625207E+01  0.18524394E+01
  0.18424140E+01  0.18324586E+01  0.18225871E+01  0.18128127E+01  0.18031483E+01
  0.17936059E+01  0.17841967E+01  0.17749311E+01  0.17658182E+01  0.17568663E+01
  0.17480824E+01  0.17394723E+01  0.17310406E+01  0.17227907E+01  0.17147245E+01
  0.17068427E+01  0.16991448E+01  0.16916290E+01  0.16842922E+01  0.16771301E+01
  0.16701374E+01  0.16633074E+01  0.16566329E+01  0.16501053E+01  0.16437155E+01
  0.16374535E+01  0.16313089E+01  0.16252705E+01  0.16193270E+01  0.16134665E+01
  0.16076772E+01  0.16019471E+01  0.15962641E+01  0.15906167E+01  0.15849931E+01
  0.15793822E+01  0.15737734E+01  0.15681566E+01  0.15625222E+01  0.15568615E+01
  0.15511666E+01  0.15454303E+01  0.15396465E+01  0.15338100E+01  0.15279164E+01
  0.15219625E+01  0.15159460E+01  0.15098657E+01  0.15037214E+01  0.14975138E+01
  0.14912446E+01  0.14849166E+01  0.14785334E+01  0.14720992E+01  0.14656194E+01
  0.14590998E+01  0.14525471E+01  0.14459682E+01  0.14393708E+01  0.14327630E+01
  0.14261529E+01  0.14195492E+01  0.14129606E+01  0.14063957E+01  0.13998633E+01
  0.13933720E+01  0.13869301E+01  0.13805457E+01  0.13742266E+01  0.13679800E+01
  0.13618126E+01  0.13557307E+01  0.13497398E+01  0.13438448E+01  0.13380500E+01
  0.13323588E+01  0.13267739E+01  0.13212972E+01  0.13159299E+01  0.13106723E+01
  0.13055240E+01  0.13004839E+01  0.12955498E+01  0.12907192E+01  0.12859886E+01
  0.12813541E+01  0.12768111E+01  0.12723544E+01  0.12679783E+01  0.12636768E+01
  0.12594435E+01  0.12552717E+01  0.12511545E+01  0.12470847E+01  0.12430551E+01
  0.12390586E+01  0.12350879E+01  0.12311361E+01  0.12271962E+01  0.12232617E+01
  0.12193262E+01  0.12153839E+01  0.12114291E+01  0.12074569E+01  0.12034626E+01
  0.11994423E+01  0.11953924E+01  0.11913102E+01  0.11871933E+01  0.11830401E+01
  0.11788495E+01  0.11746211E+01  0.11703551E+01  0.11660524E+01  0.11617143E+01
  0.11573428E+01  0.11529404E+01  0.11485100E+01  0.11440550E+01  0.11395794E+01
  0.11350872E+01  0.11305831E+01  0.11260718E+01  0.11215583E+01  0.11170478E+01
  0.11125454E+01  0.11080566E+01  0.11035865E+01  0.10991406E+01  0.10947238E+01
  0.10903411E+01  0.10859973E+01  0.10816969E+01  0.10774440E+01  0.10732425E+01
  0.10690958E+01  0.10650069E+01  0.10609786E+01  0.10570129E+01  0.10531115E+01
  0.10492758E+01  0.10455063E+01  0.10418034E+01  0.10381669E+01  0.10345959E+01
  0.10310895E+01  0.10276458E+01  0.10242629E+01  0.10209383E+01  0.10176691E+01
  0.10144523E+01  0.10112844E+01  0.10081617E+01  0.10050802E+01  0.10020358E+01
  0.99902435E+00  0.99604144E+00  0.99308268E+00  0.99014370E+00  0.98722012E+00
  0.98430766E+00  0.98140217E+00  0.97849965E+00  0.97559630E+00  0.97268858E+00
  0.96977319E+00  0.96684714E+00  0.96390777E+00  0.96095273E+00  0.95798006E+00
  0.95498815E+00  0.95197577E+00  0.94894208E+00  0.94588663E+00  0.94280935E+00
  0.93971058E+00  0.93659100E+00  0.93345168E+00  0.93029402E+00  0.92711975E+00
  0.92393089E+00  0.92072975E+00  0.91751886E+00  0.91430097E+00  0.91107900E+00
  0.90785603E+00  0.90463525E+00  0.90141992E+00  0.89821334E+00  0.89501884E+00
  0.89183971E+00  0.88867917E+00  0.88554036E+00  0.88242628E+00  0.87933977E+00
  0.87628349E+00  0.87325985E+00  0.87027107E+00  0.86731907E+00  0.86440551E+00
  0.86153177E+00  0.85869893E+00  0.85590775E+00  0.85315868E+00  0.85045188E+00
  0.84778717E+00  0.84516406E+00  0.84258179E+00  0.84003927E+00  0.83753514E+00
  0.83506781E+00  0.83263540E+00  0.83023586E+00  0.82786692E+00  0.82552615E+00
  0.82321100E+00  0.82091877E+00  0.81864670E+00  0.81639199E+00  0.81415177E+00
  0.81192320E+00  0.80970346E+00  0.80748980E+00  0.80527953E+00  0.80307011E+00
  0.80085912E+00  0.79864429E+00  0.79642357E+00  0.79419510E+00  0.79195724E+00
  0.78970858E+00  0.78744795E+00  0.78517446E+00  0.78288744E+00  0.78058651E+00
  0.77827153E+00  0.77594265E+00  0.77360025E+00  0.77124497E+00  0.76887770E+00
  0.76649955E+00  0.76411186E+00  0.76171614E+00  0.75931410E+00  0.75690760E+00
  0.75449862E+00  0.75208927E+00  0.74968173E+00  0.74727824E+00  0.74488110E+00
  0.74249260E+00  0.74011502E+00  0.73775063E+00  0.73540161E+00  0.73307009E+00
  0.73075806E+00  0.72846741E+00  0.72619986E+00  0.72395698E+00  0.72174016E+00
  0.71955057E+00  0.71738919E+00  0.71525680E+00  0.71315393E+00  0.71108091E+00
  0.70903783E+00  0.70702457E+00  0.70504077E+00  0.70308586E+00  0.70115905E+00
  0.69925935E+00  0.69738557E+00  0.69553634E+00  0.69371015E+00  0.69190530E+00
  0.69011999E+00  0.68835232E+00  0.68660028E+00  0.68486183E+00  0.68313485E+00
  0.68141722E+00  0.67970682E+00  0.67800154E+00  0.67629932E+00  0.67459816E+00
  0.67289614E+00  0.67119145E+00  0.66948238E+00  0.66776740E+00  0.66604511E+00
  0.66431427E+00  0.66257384E+00  0.66082297E+00  0.65906099E+00  0.65728744E+00
  0.65550207E+00  0.65370483E+00  0.65189585E+00  0.65007550E+00  0.64824432E+00
  0.64640303E+00  0.64455257E+00  0.64269400E+00  0.64082859E+00  0.63895772E+00
  0.63708290E+00  0.63520576E+00  0.63332802E+00  0.63145145E+00  0.62957791E+00
  0.62770926E+00  0.62584737E+00  0.62399412E+00  0.62215136E+00  0.62032088E+00
  0.61850443E+00  0.61670366E+00  0.61492012E+00  0.61315526E+00  0.61141037E+00
  0.60968662E+00  0.60798500E+00  0.60630634E+00  0.60465129E+00  0.60302032E+00
  0.60141370E+00  0.59983153E+00  0.59827370E+00  0.59673995E+00  0.59522978E+00
  0.59374257E+00  0.59227749E+00  0.59083354E+00  0.58940960E+00  0.58800436E+00
  0.58661642E+00  0.58524425E+00  0.58388621E+00  0.58254059E+00  0.58120563E+00
  0.57987951E+00  0.57856039E+00  0.57724643E+00  0.57593578E+00  0.57462666E+00
  0.57331729E+00  0.57200599E+00  0.57069115E+00  0.56937124E+00  0.56804486E+00
  0.56671074E+00  0.56536774E+00  0.56401489E+00  0.56265136E+00  0.56127650E+00
  0.55988984E+00  0.55849107E+00  0.55708008E+00  0.55565694E+00  0.55422187E+00
  0.55277530E+00  0.55131780E+00  0.54985012E+00  0.54837317E+00  0.54688799E+00
  0.54539577E+00  0.54389783E+00  0.54239558E+00  0.54089053E+00  0.53938429E+00
  0.53787849E+00  0.53637482E+00  0.53487501E+00  0.53338078E+00  0.53189382E+00
  0.53041584E+00  0.52894847E+00  0.52749329E+00  0.52605179E+00  0.52462540E+00
  0.52321542E+00  0.52182303E+00  0.52044929E+00  0.51909510E+00  0.51776122E+00
  0.51644825E+00  0.51515660E+00  0.51388653E+00  0.51263814E+00  0.51141133E+00
  0.51020585E+00  0.50902127E+00  0.50785701E+00  0.50671232E+00  0.50558630E+00
  0.50447793E+00  0.50338603E+00  0.50230932E+00  0.50124639E+00  0.50019575E+00
  0.49915585E+00  0.49812504E+00  0.49710167E+00  0.49608403E+00  0.49507042E+00
  0.49405914E+00  0.49304850E+00  0.49203688E+00  0.49102269E+00  0.49000440E+00
  0.48898059E+00  0.48794993E+00  0.48691120E+00  0.48586329E+00  0.48480524E+00
  0.48373625E+00  0.48265563E+00  0.48156290E+00  0.48045769E+00  0.47933985E+00
  0.47820934E+00  0.47706633E+00  0.47591111E+00  0.47474417E+00  0.47356613E+00
  0.47237775E+00  0.47117994E+00  0.46997375E+00  0.46876033E+00  0.46754095E+00
  0.46631699E+00  0.46508987E+00  0.46386110E+00  0.46263225E+00  0.46140490E+00
  0.46018066E+00  0.45896113E+00  0.45774791E+00  0.45654255E+00  0.45534657E+00
  0.45416142E+00  0.45298849E+00  0.45182908E+00  0.45068437E+00  0.44955544E+00
  0.44844326E+00  0.44734864E+00  0.44627226E+00  0.44521466E+00  0.44417621E+00
  0.44315713E+00  0.44215749E+00  0.44117719E+00  0.44021599E+00  0.43927348E+00
  0.43834911E+00  0.43744219E+00  0.43655189E+00  0.43567725E+00  0.43481719E+00
  0.43397051E+00  0.43313594E+00  0.43231211E+00  0.43149756E+00  0.43069082E+00
  0.42989034E+00  0.42909456E+00  0.42830193E+00  0.42751087E+00  0.42671985E+00
  0.42592736E+00  0.42513194E+00  0.42433220E+00  0.42352682E+00  0.42271457E+00
  0.42189431E+00  0.42106504E+00  0.42022585E+00  0.41937599E+00  0.41851482E+00
  0.41764186E+00  0.41675678E+00  0.41585938E+00  0.41494964E+00  0.41402765E+00
  0.41309368E+00  0.41214813E+00  0.41119154E+00  0.41022458E+00  0.40924806E+00
  0.40826289E+00  0.40727012E+00  0.40627087E+00  0.40526637E+00  0.40425791E+00
  0.40324685E+00  0.40223458E+00  0.40122256E+00  0.40021223E+00  0.39920505E+00
  0.39820247E+00  0.39720593E+00  0.39621680E+00  0.39523644E+00  0.39426611E+00
  0.39330702E+00  0.39236028E+00  0.39142692E+00  0.39050783E+00  0.38960382E+00
  0.38871554E+00  0.38784352E+00  0.38698818E+00  0.38614976E+00  0.38532839E+00
  0.38452404E+00  0.38373656E+00  0.38296565E+00  0.38221087E+00  0.38147167E+00
  0.38074736E+00  0.38003713E+00  0.37934008E+00  0.37865517E+00  0.37798132E+00
  0.37731733E+00  0.37666195E+00  0.37601387E+00  0.37537175E+00  0.37473421E+00
  0.37409987E+00  0.37346734E+00  0.37283523E+00  0.37220221E+00  0.37156694E+00
  0.37092817E+00  0.37028469E+00  0.36963537E+00  0.36897917E+00  0.36831514E+00
  0.36764242E+00  0.36696028E+00  0.36626810E+00  0.36556539E+00  0.36485177E+00
  0.36412702E+00  0.36339101E+00  0.36264379E+00  0.36188549E+00  0.36111641E+00
  0.36033693E+00  0.35954760E+00  0.35874905E+00  0.35794203E+00  0.35712739E+00
  0.35630607E+00  0.35547910E+00  0.35464757E+00  0.35381263E+00  0.35297549E+00
  0.35213738E+00  0.35129957E+00  0.35046333E+00  0.34962993E+00  0.34880062E+00
 gradient corrections used for XC
           5
 core charge-density (partial)
  0.18948557E+01  0.18939563E+01  0.18912603E+01  0.18867750E+01  0.18805123E+01
  0.18724889E+01  0.18627261E+01  0.18512497E+01  0.18380899E+01  0.18232815E+01
  0.18068630E+01  0.17888772E+01  0.17693706E+01  0.17483934E+01  0.17259991E+01
  0.17022445E+01  0.16771892E+01  0.16508956E+01  0.16234287E+01  0.15948555E+01
  0.15652449E+01  0.15346677E+01  0.15031959E+01  0.14709028E+01  0.14378624E+01
  0.14041493E+01  0.13698387E+01  0.13350055E+01  0.12997245E+01  0.12640702E+01
  0.12281163E+01  0.11919356E+01  0.11555997E+01  0.11191788E+01  0.10827417E+01
  0.10463553E+01  0.10100846E+01  0.97399249E+00  0.93813957E+00  0.90258408E+00
  0.86738171E+00  0.83258553E+00  0.79824586E+00  0.76441021E+00  0.73112322E+00
  0.69842655E+00  0.66635893E+00  0.63495605E+00  0.60425058E+00  0.57427218E+00
  0.54504747E+00  0.51660011E+00  0.48895078E+00  0.46211725E+00  0.43611443E+00
  0.41095442E+00  0.38664663E+00  0.36319778E+00  0.34061204E+00  0.31889113E+00
  0.29803439E+00  0.27803889E+00  0.25889956E+00  0.24060926E+00  0.22315896E+00
  0.20653778E+00  0.19073319E+00  0.17573105E+00  0.16151579E+00  0.14807053E+00
  0.13537716E+00  0.12341650E+00  0.11216838E+00  0.10161181E+00  0.91725033E-01
  0.82485687E-01  0.73870883E-01  0.65857320E-01  0.58421385E-01  0.51539249E-01
  0.45186963E-01  0.39340542E-01  0.33976050E-01  0.29069683E-01  0.24597838E-01
  0.20537187E-01  0.16864737E-01  0.13557897E-01  0.10594525E-01  0.79529820E-02
  0.56121783E-02  0.35516111E-02  0.17514018E-02  0.19232669E-03 -0.11441561E-02
 -0.22758844E-02 -0.32199737E-02 -0.39928030E-02 -0.46100045E-02 -0.50864567E-02
 -0.54362816E-02 -0.56728445E-02 -0.58087575E-02 -0.58558852E-02 -0.58253539E-02
 -0.57275631E-02 -0.55721985E-02 -0.53682483E-02 -0.51240208E-02 -0.48471636E-02
 -0.45446846E-02 -0.42229739E-02 -0.38878279E-02 -0.35444726E-02 -0.31975898E-02
 -0.28513418E-02 -0.25093984E-02 -0.21749632E-02 -0.18507999E-02 -0.15392597E-02
 -0.12423075E-02 -0.96154846E-03 -0.69825408E-03 -0.45338794E-03 -0.22763085E-03
 -0.21405380E-04  0.16510024E-03  0.33190899E-03  0.47923279E-03  0.60745103E-03
  0.71709005E-03  0.80880358E-03  0.88335415E-03  0.94159553E-03  0.98445614E-03
  0.10129236E-02  0.10280301E-02  0.10308392E-02  0.10224333E-02  0.10039023E-02
  0.97633312E-03  0.94080047E-03  0.89835843E-03  0.85003289E-03  0.79681505E-03
  0.73965569E-03  0.67946034E-03  0.61708517E-03  0.55333378E-03  0.48895452E-03
  0.42463865E-03  0.36101903E-03  0.29866947E-03  0.23810456E-03  0.17978002E-03
  0.12409355E-03  0.71386023E-04  0.21943109E-04 -0.24002827E-04 -0.66270501E-04
 -0.10472726E-03 -0.13928641E-03 -0.16990437E-03 -0.19657775E-03 -0.21934019E-03
 -0.23825929E-03 -0.25343338E-03 -0.26498834E-03 -0.27307439E-03 -0.27786295E-03
 -0.27954357E-03 -0.27832085E-03 -0.27441159E-03 -0.26804195E-03 -0.25944476E-03
 -0.24885701E-03 -0.23651743E-03 -0.22266424E-03 -0.20753312E-03 -0.19135526E-03
 -0.17435565E-03 -0.15675150E-03 -0.13875089E-03 -0.12055151E-03 -0.10233963E-03
 -0.84289247E-04 -0.66561339E-04 -0.49303335E-04 -0.32648700E-04 -0.16716678E-04
 -0.16121731E-05  0.12574242E-04  0.25766198E-04  0.37901286E-04  0.48930716E-04
  0.58818873E-04  0.67542806E-04  0.75091621E-04  0.81465828E-04  0.86676626E-04
  0.90745134E-04  0.93701600E-04  0.95584570E-04  0.96440044E-04  0.96320615E-04
  0.95284610E-04  0.93395229E-04  0.90719700E-04  0.87328443E-04  0.83294263E-04
  0.78691570E-04  0.73595627E-04  0.68081837E-04  0.62225074E-04  0.56099053E-04
  0.49775746E-04  0.43324850E-04  0.36813302E-04  0.30304847E-04  0.23859655E-04
  0.17533995E-04  0.11379953E-04  0.54452087E-05 -0.22713951E-06 -0.55987048E-05
 -0.10635890E-04 -0.15309923E-04 -0.19596848E-04 -0.23477476E-04 -0.26937300E-04
 -0.29966369E-04 -0.32559135E-04 -0.34714270E-04 -0.36434453E-04 -0.37726138E-04
 -0.38599300E-04 -0.39067162E-04 -0.39145918E-04 -0.38854427E-04 -0.38213922E-04
 -0.37247693E-04 -0.35980786E-04 -0.34439688E-04 -0.32652026E-04 -0.30646265E-04
 -0.28451420E-04 -0.26096770E-04 -0.23611589E-04 -0.21024893E-04 -0.18365194E-04
 -0.15660276E-04 -0.12936989E-04 -0.10221056E-04 -0.75369031E-05 -0.49075080E-05
 -0.23542679E-05  0.10311242E-06  0.24467135E-05  0.46604731E-05  0.67302397E-05
  0.86438067E-05  0.10390929E-04  0.11963319E-04  0.13354633E-04  0.14560431E-04
  0.15578136E-04  0.16406960E-04  0.17047841E-04  0.17503349E-04  0.17777591E-04
  0.17876107E-04  0.17805756E-04  0.17574597E-04  0.17191766E-04  0.16667346E-04
  0.16012239E-04  0.15238035E-04  0.14356878E-04  0.13381335E-04  0.12324271E-04
  0.11198723E-04  0.10017774E-04  0.87944431E-05  0.75415687E-05  0.62717076E-05
  0.49970358E-05  0.37292584E-05  0.24795273E-05  0.12583669E-05  0.75608550E-07
 -0.10596665E-05 -0.21391748E-05 -0.31554704E-05 -0.41019748E-05 -0.49729991E-05
 -0.57637565E-05 -0.64703676E-05 -0.70898571E-05 -0.76201429E-05 -0.80600180E-05
 -0.84091259E-05 -0.86679292E-05 -0.88376727E-05 -0.89203412E-05 -0.89186126E-05
 -0.88358072E-05 -0.86758328E-05 -0.84431280E-05 -0.81426016E-05 -0.77795723E-05
 -0.73597055E-05 -0.68889505E-05 -0.63734779E-05 -0.58196164E-05 -0.52337921E-05
 -0.46224684E-05 -0.39920880E-05 -0.33490178E-05 -0.26994956E-05 -0.20495813E-05
 -0.14051102E-05 -0.77165058E-06 -0.15446532E-06  0.44152267E-06  0.10117608E-05
  0.15520925E-05  0.20587792E-05  0.25285171E-05  0.29584503E-05  0.33461787E-05
  0.36897630E-05  0.39877241E-05  0.42390397E-05  0.44431364E-05  0.45998784E-05
  0.47095530E-05  0.47728529E-05  0.47908555E-05  0.47649997E-05  0.46970607E-05
  0.45891222E-05  0.44435476E-05  0.42629494E-05  0.40501573E-05  0.38081866E-05
  0.35402046E-05  0.32494982E-05  0.29394408E-05  0.26134603E-05  0.22750064E-05
  0.19275209E-05  0.15744071E-05  0.12190018E-05  0.86454845E-06  0.51417189E-06
  0.17085537E-06 -0.16258080E-06 -0.48349834E-06 -0.78945779E-06 -0.10782332E-05
 -0.13478242E-05 -0.15964663E-05 -0.18226377E-05 -0.20250652E-05 -0.22027268E-05
 -0.23548520E-05 -0.24809208E-05 -0.25806596E-05 -0.26540353E-05 -0.27012485E-05
 -0.27227233E-05 -0.27190968E-05 -0.26912065E-05 -0.26400764E-05 -0.25669024E-05
 -0.24730360E-05 -0.23599677E-05 -0.22293095E-05 -0.20827769E-05 -0.19221710E-05
 -0.17493595E-05 -0.15662588E-05 -0.13748155E-05 -0.11769888E-05 -0.97473263E-06
 -0.76997889E-06 -0.56462150E-06 -0.36050091E-06 -0.15938974E-06  0.37020522E-07
  0.22713180E-06  0.40945046E-06  0.58259709E-06  0.74531507E-06  0.89647769E-06
  0.10350941E-05  0.11603138E-05  0.12714295E-05  0.13678796E-05  0.14492480E-05
  0.15152636E-05  0.15657985E-05  0.16008646E-05  0.16206092E-05  0.16253102E-05
  0.16153690E-05  0.15913040E-05  0.15537426E-05  0.15034119E-05  0.14411301E-05
  0.13677963E-05  0.12843806E-05  0.11919133E-05  0.10914742E-05  0.98418195E-06
  0.87118293E-06  0.75364064E-06  0.63272501E-06  0.50960200E-06  0.38542358E-06
  0.26131808E-06  0.13838106E-06  0.17666678E-07 -0.99820314E-07 -0.21313190E-06
 -0.32138349E-06 -0.42375976E-06 -0.51951991E-06 -0.60800192E-06 -0.68862616E-06
 -0.76089812E-06 -0.82441036E-06 -0.87884357E-06 -0.92396700E-06 -0.95963792E-06
 -0.98580049E-06 -0.10024838E-05 -0.10097994E-05 -0.10079378E-05 -0.99716490E-06
 -0.97781760E-06 -0.95029875E-06 -0.91507198E-06 -0.87265598E-06 -0.82361849E-06
 -0.76857002E-06 -0.70815740E-06 -0.64305715E-06 -0.57396879E-06 -0.50160814E-06
 -0.42670064E-06 -0.34997479E-06 -0.27215571E-06 -0.19395890E-06 -0.11608431E-06
 -0.39210606E-07  0.36010157E-07  0.10895752E-06  0.17904718E-06  0.24573515E-06
  0.30852145E-06  0.36695328E-06  0.42062777E-06  0.46919415E-06  0.51235553E-06
  0.54986999E-06  0.58155136E-06  0.60726935E-06  0.62694929E-06  0.64057130E-06
  0.64816912E-06  0.64982841E-06  0.64568469E-06  0.63592089E-06  0.62076458E-06
  0.60048482E-06  0.57538878E-06  0.54581813E-06  0.51214517E-06  0.47476881E-06
  0.43411047E-06  0.39060981E-06  0.34472045E-06  0.29690571E-06  0.24763427E-06
  0.19737601E-06  0.14659788E-06  0.95759865E-07  0.45311210E-07 -0.43132758E-08
 -0.52696627E-07 -0.99442926E-07 -0.14418023E-06 -0.18656323E-06 -0.22627562E-06
 -0.26303212E-06 -0.29658024E-06 -0.32670166E-06 -0.35321332E-06 -0.37596818E-06
 -0.39485560E-06 -0.40980145E-06 -0.42076790E-06 -0.42775283E-06 -0.43078906E-06
 -0.42994320E-06 -0.42531424E-06 -0.41703199E-06 -0.40525516E-06 -0.39016933E-06
 -0.37198467E-06 -0.35093357E-06 -0.32726807E-06 -0.30125720E-06 -0.27318426E-06
 -0.24334401E-06 -0.21203984E-06 -0.17958091E-06 -0.14627935E-06 -0.11244746E-06
 -0.78394987E-07 -0.44426486E-07 -0.10838790E-07  0.22081401E-07  0.54059779E-07
  0.84836540E-07  0.11416831E-06  0.14182989E-06  0.16761581E-06  0.19134167E-06
  0.21284525E-06  0.23198744E-06  0.24865293E-06  0.26275067E-06  0.27421413E-06
  0.28300130E-06  0.28909455E-06  0.29250018E-06  0.29324789E-06  0.29138997E-06
  0.28700036E-06  0.28017348E-06  0.27102302E-06  0.25968047E-06  0.24629362E-06
  0.23102488E-06  0.21404957E-06  0.19555409E-06  0.17573409E-06  0.15479251E-06
  0.13293770E-06  0.11038147E-06  0.87337158E-07  0.64017763E-07  0.40634083E-07
  0.17392927E-07 -0.55045942E-08 -0.27864699E-07 -0.49502467E-07 -0.70243256E-07
 -0.89924004E-07 -0.10839440E-06 -0.12551792E-06 -0.14117274E-06 -0.15525243E-06
 -0.16766664E-06 -0.17834145E-06 -0.18721975E-06 -0.19426133E-06 -0.19944289E-06
 -0.20275787E-06 -0.20421620E-06 -0.20384382E-06 -0.20168215E-06 -0.19778737E-06
 -0.19222966E-06 -0.18509230E-06 -0.17647061E-06 -0.16647097E-06 -0.15520955E-06
 -0.14281121E-06 -0.12940814E-06 -0.11513862E-06 -0.10014563E-06 -0.84575599E-07
 -0.68576954E-07 -0.52298864E-07 -0.35889889E-07 -0.19496711E-07 -0.32628923E-08
  0.12672312E-07  0.28175080E-07  0.43118075E-07  0.57381426E-07  0.70853620E-07
  0.83432305E-07  0.95024996E-07  0.10554968E-06  0.11493533E-06  0.12312229E-06
  0.13006258E-06  0.13572006E-06  0.14007053E-06  0.14310171E-06  0.14481307E-06
  0.14521565E-06  0.14433171E-06  0.14219430E-06  0.13884678E-06  0.13434226E-06
  0.12874289E-06  0.12211920E-06  0.11454926E-06  0.10611791E-06  0.96915876E-07
  0.87038822E-07  0.76586476E-07  0.65661650E-07  0.54369297E-07  0.42815553E-07
  0.31106787E-07  0.19348674E-07  0.76452853E-08 -0.39017858E-08 -0.15194261E-07
 -0.26137970E-07 -0.36643590E-07 -0.46627335E-07 -0.56011576E-07 -0.64725399E-07
 -0.72705100E-07 -0.79894597E-07 -0.86245777E-07 -0.91718762E-07 -0.96282104E-07
 -0.99912895E-07 -0.10259681E-06 -0.10432806E-06 -0.10510930E-06 -0.10495144E-06
 -0.10387338E-06 -0.10190171E-06 -0.99070348E-07 -0.95420072E-07 -0.90998071E-07
 -0.85857400E-07 -0.80056408E-07 -0.73658137E-07 -0.66729683E-07 -0.59341536E-07
 -0.51566906E-07 -0.43481032E-07 -0.35160493E-07 -0.26682514E-07 -0.18124283E-07
 -0.95622763E-08 -0.10716098E-08  0.72745935E-08  0.15405803E-07  0.23254648E-07
  0.30757446E-07  0.37854692E-07  0.44491500E-07  0.50617999E-07  0.56189675E-07
  0.61167662E-07  0.65518981E-07  0.69216719E-07  0.72240156E-07  0.74574834E-07
  0.76212571E-07  0.77151419E-07  0.77395573E-07  0.76955221E-07  0.75846349E-07
  0.74090502E-07  0.71714496E-07  0.68750090E-07  0.65233623E-07  0.61205615E-07
  0.56710345E-07  0.51795392E-07  0.46511169E-07  0.40910429E-07  0.35047771E-07
  0.28979123E-07  0.22761241E-07  0.16451193E-07  0.10105860E-07  0.37814437E-08
 -0.24670125E-08 -0.85860822E-08 -0.14524393E-07 -0.20233040E-07 -0.25665966E-07
 -0.30780318E-07 -0.35536762E-07 -0.39899764E-07 -0.43837839E-07 -0.47323753E-07
 -0.50334685E-07 -0.52852354E-07 -0.54863101E-07 -0.56357925E-07 -0.57332487E-07
 -0.57787065E-07 -0.57726475E-07 -0.57159949E-07 -0.56100987E-07 -0.54567157E-07
 -0.52579884E-07 -0.50164189E-07 -0.47348416E-07 -0.44163929E-07 -0.40644785E-07
 -0.36827395E-07 -0.32750165E-07 -0.28453132E-07 -0.23977582E-07 -0.19365677E-07
 -0.14660065E-07 -0.99035084E-08 -0.51385021E-08 -0.40691354E-09  0.42503747E-08
  0.87938039E-08  0.13185462E-07  0.17389386E-07  0.21371845E-07  0.25101597E-07
  0.28550116E-07  0.31691803E-07  0.34504155E-07  0.36967916E-07  0.39067184E-07
  0.40789504E-07  0.42125912E-07  0.43070964E-07  0.43622718E-07  0.43782702E-07
  0.43555838E-07  0.42950351E-07  0.41977636E-07  0.40652113E-07  0.38991053E-07
  0.37014379E-07  0.34744450E-07  0.32205827E-07  0.29425029E-07  0.26430260E-07
  0.23251149E-07  0.19918457E-07  0.16463801E-07  0.12919358E-07  0.93175799E-08
  0.56909039E-08  0.20714713E-08 -0.15091478E-08 -0.50202209E-08 -0.84321077E-08
 -0.11716501E-07 -0.14846651E-07 -0.17797577E-07 -0.20546254E-07 -0.23071785E-07
 -0.25355547E-07 -0.27381321E-07 -0.29135394E-07 -0.30606639E-07 -0.31786572E-07
 -0.32669384E-07 -0.33251954E-07 -0.33533827E-07 -0.33517185E-07 -0.33206781E-07
 -0.32609860E-07 -0.31736058E-07 -0.30597280E-07 -0.29207562E-07 -0.27582916E-07
 -0.25741159E-07 -0.23701732E-07 -0.21485504E-07 -0.19114569E-07 -0.16612035E-07
 -0.14001806E-07 -0.11308363E-07 -0.85565420E-08 -0.57713106E-08 -0.29775497E-08
 -0.19983775E-09  0.25377589E-08  0.52118878E-08  0.78001033E-08  0.10281048E-07
  0.12634624E-07  0.14842146E-07  0.16886486E-07  0.18752197E-07  0.20425624E-07
  0.21894995E-07  0.23150495E-07  0.24184326E-07  0.24990737E-07  0.25566054E-07
  0.25908670E-07  0.26019039E-07  0.25899632E-07  0.25554893E-07  0.24991166E-07
  0.24216615E-07  0.23241122E-07  0.22076180E-07  0.20734767E-07  0.19231211E-07
  0.17581044E-07  0.15800851E-07  0.13908112E-07  0.11921029E-07  0.98583674E-08
  0.77392741E-08  0.55831117E-08  0.34092844E-08  0.12370680E-08 -0.91455522E-09
 -0.30270587E-08 -0.50825256E-08 -0.70637965E-08 -0.89546080E-08 -0.10739721E-07
 -0.12405040E-07 -0.13937717E-07 -0.15326249E-07 -0.16560555E-07 -0.17632046E-07
 -0.18533679E-07 -0.19259993E-07 -0.19807136E-07 -0.20172878E-07 -0.20356603E-07
 -0.20359291E-07 -0.20183493E-07 -0.19833279E-07 -0.19314186E-07 -0.18633145E-07
 -0.17798406E-07 -0.16819440E-07 -0.15706848E-07 -0.14472245E-07 -0.13128149E-07
 -0.11687857E-07 -0.10165319E-07 -0.85750084E-08 -0.69317858E-08 -0.52507660E-08
 -0.35471823E-08 -0.18362520E-08 -0.13304381E-09  0.15476509E-08  0.31914436E-08
  0.47844682E-08  0.63134945E-08  0.77660352E-08  0.91304435E-08  0.10396004E-07
  0.11553012E-07  0.12592845E-07  0.13508023E-07  0.14292257E-07  0.14940488E-07
  0.15448915E-07  0.15815008E-07  0.16037517E-07  0.16116460E-07  0.16053111E-07
  0.15849966E-07  0.15510710E-07  0.15040166E-07  0.14444236E-07  0.13729836E-07
  0.12904825E-07  0.11977920E-07  0.10958607E-07  0.98570526E-08  0.86840038E-08
  0.74506856E-08  0.61686979E-08  0.48499089E-08  0.35063485E-08  0.21501003E-08
  0.79319684E-09 -0.55248578E-09 -0.18753286E-08 -0.31640677E-08 -0.44078878E-08
 -0.55965107E-08 -0.67202771E-08 -0.77702230E-08 -0.87381483E-08 -0.96166784E-08
 -0.10399317E-07 -0.11080492E-07 -0.11655590E-07 -0.12120986E-07 -0.12474059E-07
 -0.12713207E-07 -0.12837840E-07 -0.12848378E-07 -0.12746229E-07 -0.12533770E-07
 -0.12214307E-07 -0.11792038E-07 -0.11272003E-07 -0.10660030E-07 -0.99626734E-08
 -0.91871462E-08 -0.83412509E-08 -0.74333021E-08 -0.64720478E-08 -0.54665875E-08
 -0.44262880E-08 -0.33606990E-08 -0.22794666E-08 -0.11922487E-08 -0.10863009E-09
  0.96195974E-09  0.20103270E-08  0.30275905E-08  0.40052555E-08  0.49352821E-08
  0.58101499E-08  0.66229168E-08  0.73672721E-08  0.80375833E-08  0.86289366E-08
  0.91371703E-08  0.95589019E-08  0.98915471E-08  0.10133332E-07  0.10283300E-07
  0.10341307E-07  0.10308014E-07  0.10184871E-07  0.99740928E-08  0.96786330E-08
  0.93021463E-08  0.88489484E-08  0.83239707E-08  0.77327085E-08  0.70811669E-08
  0.63758014E-08  0.56234563E-08  0.48312999E-08  0.40067580E-08  0.31574463E-08
  0.22911008E-08  0.14155098E-08  0.53844467E-09 -0.33240741E-09 -0.11895094E-08
 -0.20255385E-08 -0.28334467E-08 -0.36065196E-08 -0.43384303E-08 -0.50232896E-08
 -0.56556925E-08 -0.62307587E-08 -0.67441691E-08 -0.71921961E-08 -0.75717291E-08
 -0.78802940E-08 -0.81160666E-08 -0.82778809E-08 -0.83652307E-08 -0.83782664E-08
 -0.83177852E-08 -0.81852165E-08 -0.79826014E-08 -0.77125678E-08 -0.73782999E-08
 -0.69835039E-08 -0.65323692E-08 -0.60295259E-08 -0.54799994E-08 -0.48891613E-08
 -0.42626788E-08 -0.36064614E-08 -0.29266066E-08 -0.22293442E-08 -0.15209808E-08
 -0.80784353E-09 -0.96224869E-10  0.60767198E-09  0.12977860E-08  0.19682495E-08
  0.26134368E-08  0.32280108E-08  0.38069656E-08  0.43456663E-08  0.48398850E-08
 kinetic energy density (partial)
  0.16995715E+03  0.16987727E+03  0.16963781E+03  0.16923942E+03  0.16868314E+03
  0.16797044E+03  0.16710317E+03  0.16608361E+03  0.16491440E+03  0.16359858E+03
  0.16213955E+03  0.16054105E+03  0.15880717E+03  0.15694230E+03  0.15495116E+03
  0.15283873E+03  0.15061024E+03  0.14827119E+03  0.14582728E+03  0.14328441E+03
  0.14064866E+03  0.13792625E+03  0.13512353E+03  0.13224695E+03  0.12930306E+03
  0.12629844E+03  0.12323972E+03  0.12013352E+03  0.11698648E+03  0.11380517E+03
  0.11059613E+03  0.10736581E+03  0.10412057E+03  0.10086665E+03  0.97610158E+02
  0.94357050E+02  0.91113118E+02  0.87883971E+02  0.84675022E+02  0.81491477E+02
  0.78338324E+02  0.75220319E+02  0.72141983E+02  0.69107588E+02  0.66121155E+02
  0.63186450E+02  0.60306973E+02  0.57485963E+02  0.54726392E+02  0.52030964E+02
  0.49402119E+02  0.46842032E+02  0.44352614E+02  0.41935519E+02  0.39592147E+02
  0.37323648E+02  0.35130929E+02  0.33014662E+02  0.30975287E+02  0.29013026E+02
  0.27127886E+02  0.25319671E+02  0.23587992E+02  0.21932273E+02  0.20351765E+02
  0.18845554E+02  0.17412574E+02  0.16051614E+02  0.14761329E+02  0.13540257E+02
  0.12386820E+02  0.11299342E+02  0.10276057E+02  0.93151175E+01  0.84146090E+01
  0.75725560E+01  0.67869336E+01  0.60556763E+01  0.53766874E+01  0.47478476E+01
  0.41670235E+01  0.36320754E+01  0.31408650E+01  0.26912630E+01  0.22811554E+01
  0.19084499E+01  0.15710824E+01  0.12670217E+01  0.99427547E+00  0.75089405E+00
  0.53497526E+00  0.34466798E+00  0.17817549E+00  0.33758498E-01 -0.90262308E-01
 -0.19550412E+00 -0.28352018E+00 -0.35579839E+00 -0.41376020E+00 -0.45875989E+00
 -0.49208413E+00 -0.51495188E+00 -0.52851451E+00 -0.53385632E+00 -0.53199512E+00
 -0.52388323E+00 -0.51040858E+00 -0.49239604E+00 -0.47060894E+00 -0.44575071E+00
 -0.41846675E+00 -0.38934633E+00 -0.35892465E+00 -0.32768501E+00 -0.29606099E+00
 -0.26443881E+00 -0.23315958E+00 -0.20252176E+00 -0.17278349E+00 -0.14416502E+00
 -0.11685111E+00 -0.90993417E-01 -0.66712852E-01 -0.44101904E-01 -0.23226928E-01
 -0.41303805E-02  0.13167010E-01  0.28664132E-01  0.42377459E-01  0.54339079E-01
  0.64594824E-01  0.73202468E-01  0.80230023E-01  0.85754120E-01  0.89858484E-01
  0.92632502E-01  0.94169888E-01  0.94567435E-01  0.93923868E-01  0.92338789E-01
  0.89911709E-01  0.86741176E-01  0.82923991E-01  0.78554503E-01  0.73723994E-01
  0.68520145E-01  0.63026571E-01  0.57322440E-01  0.51482154E-01  0.45575101E-01
  0.39665467E-01  0.33812109E-01  0.28068482E-01  0.22482613E-01  0.17097127E-01
  0.11949314E-01  0.70712339E-02  0.24898546E-02 -0.17727760E-02 -0.56993325E-02
 -0.92769913E-02 -0.12497189E-01 -0.15355366E-01 -0.17850694E-01 -0.19985798E-01
 -0.21766465E-01 -0.23201355E-01 -0.24301706E-01 -0.25081039E-01 -0.25554870E-01
 -0.25740425E-01 -0.25656357E-01 -0.25322482E-01 -0.24759513E-01 -0.23988818E-01
 -0.23032177E-01 -0.21911565E-01 -0.20648939E-01 -0.19266048E-01 -0.17784253E-01
 -0.16224365E-01 -0.14606501E-01 -0.12949948E-01 -0.11273055E-01 -0.95931295E-02
 -0.79263574E-02 -0.62877336E-02 -0.46910088E-02 -0.31486504E-02 -0.16718168E-02
 -0.27034420E-03  0.10472542E-02  0.22737779E-02  0.34033181E-02  0.44312274E-02
  0.53540807E-02  0.61696277E-02  0.68767393E-02  0.74753469E-02  0.79663775E-02
  0.83516834E-02  0.86339691E-02  0.88167149E-02  0.89040995E-02  0.89009200E-02
  0.88125130E-02  0.86446745E-02  0.84035819E-02  0.80957164E-02  0.77277883E-02
  0.73066638E-02  0.68392962E-02  0.63326585E-02  0.57936815E-02  0.52291950E-02
  0.46458733E-02  0.40501851E-02  0.34483485E-02  0.28462902E-02  0.22496096E-02
  0.16635478E-02  0.10929617E-02  0.54230184E-03  0.15596315E-04 -0.48356193E-03
 -0.95202285E-03 -0.13870830E-02 -0.17864850E-02 -0.21484138E-02 -0.24714883E-02
 -0.27547511E-02 -0.29976538E-02 -0.32000406E-02 -0.33621287E-02 -0.34844873E-02
 -0.35680138E-02 -0.36139091E-02 -0.36236512E-02 -0.35989683E-02 -0.35418105E-02
 -0.34543211E-02 -0.33388088E-02 -0.31977182E-02 -0.30336019E-02 -0.28490926E-02
 -0.26468759E-02 -0.24296644E-02 -0.22001720E-02 -0.19610904E-02 -0.17150667E-02
 -0.14646819E-02 -0.12124317E-02 -0.96070867E-03 -0.71178646E-03 -0.46780520E-03
 -0.23075934E-03 -0.24870459E-05  0.21533853E-03  0.42121609E-03  0.61382130E-03
  0.79201011E-03  0.95482031E-03  0.11014716E-02  0.12313638E-02  0.13440743E-02
  0.14393528E-02  0.15171164E-02  0.15774423E-02  0.16205598E-02  0.16468415E-02
  0.16567938E-02  0.16510460E-02  0.16303398E-02  0.15955172E-02  0.15475092E-02
  0.14873235E-02  0.14160323E-02  0.13347599E-02  0.12446710E-02  0.11469583E-02
  0.10428311E-02  0.93350402E-03  0.82018583E-03  0.70406946E-03  0.58632206E-03
  0.46807595E-03  0.35042013E-03  0.23439261E-03  0.12097350E-03  0.11078815E-04
 -0.94444831E-04 -0.19482474E-03 -0.28936580E-03 -0.37745342E-03 -0.45855549E-03
 -0.53222372E-03 -0.59809408E-03 -0.65588659E-03 -0.70540428E-03 -0.74653161E-03
 -0.77923216E-03 -0.80354577E-03 -0.81958510E-03 -0.82753178E-03 -0.82763204E-03
 -0.82019199E-03 -0.80557260E-03 -0.78418433E-03 -0.75648164E-03 -0.72295726E-03
 -0.68413641E-03 -0.64057092E-03 -0.59283341E-03 -0.54151142E-03 -0.48720177E-03
 -0.43050494E-03 -0.37201967E-03 -0.31233785E-03 -0.25203956E-03 -0.19168847E-03
 -0.13182752E-03 -0.72974975E-04 -0.15620814E-04  0.39776491E-04  0.92792804E-04
  0.14304075E-03  0.19017173E-03  0.23387756E-03  0.27389162E-03  0.30998970E-03
  0.34199040E-03  0.36975513E-03  0.39318776E-03  0.41223396E-03  0.42688011E-03
  0.43715196E-03  0.44311302E-03  0.44486262E-03  0.44253377E-03  0.43629081E-03
  0.42632685E-03  0.41286104E-03  0.39613578E-03  0.37641377E-03  0.35397500E-03
  0.32911368E-03  0.30213520E-03  0.27335308E-03  0.24308594E-03  0.21165451E-03
  0.17937883E-03  0.14657542E-03  0.11355463E-03  0.80618219E-04  0.48056922E-04
  0.16148346E-04 -0.14845028E-04 -0.44677624E-04 -0.73122340E-04 -0.99971911E-04
 -0.12504006E-03 -0.14816240E-03 -0.16919716E-03 -0.18802567E-03 -0.20455263E-03
 -0.21870614E-03 -0.23043760E-03 -0.23972133E-03 -0.24655409E-03 -0.25095431E-03
 -0.25296127E-03 -0.25263408E-03 -0.25005049E-03 -0.24530564E-03 -0.23851064E-03
 -0.22979111E-03 -0.21928563E-03 -0.20714406E-03 -0.19352595E-03 -0.17859877E-03
 -0.16253625E-03 -0.14551663E-03 -0.12772097E-03 -0.10933153E-03 -0.90530043E-04
 -0.71496252E-04 -0.52406335E-04 -0.33431508E-04 -0.14736677E-04  0.35208011E-05
  0.21192260E-04  0.38138752E-04  0.54231960E-04  0.69354992E-04  0.83403051E-04
  0.96283981E-04  0.10791868E-03  0.11824141E-03  0.12719994E-03  0.13475561E-03
  0.14088327E-03  0.14557107E-03  0.14882018E-03  0.15064438E-03  0.15106957E-03
  0.15013320E-03  0.14788356E-03  0.14437908E-03  0.13968750E-03  0.13388500E-03
  0.12705532E-03  0.11928876E-03  0.11068123E-03  0.10133326E-03  0.91348959E-04
  0.80835036E-04  0.69899767E-04  0.58652019E-04  0.47200283E-04  0.35651736E-04
  0.24111347E-04  0.12681024E-04  0.14588117E-05 -0.94618530E-05 -0.19992823E-04
 -0.30051861E-04 -0.39563190E-04 -0.48457971E-04 -0.56674708E-04 -0.64159579E-04
 -0.70866687E-04 -0.76758246E-04 -0.81804676E-04 -0.85984639E-04 -0.89284994E-04
 -0.91700685E-04 -0.93234561E-04 -0.93897137E-04 -0.93706285E-04 -0.92686887E-04
 -0.90870415E-04 -0.88294484E-04 -0.85002357E-04 -0.81042410E-04 -0.76467575E-04
 -0.71334757E-04 -0.65704225E-04 -0.59639003E-04 -0.53204243E-04 -0.46466599E-04
 -0.39493611E-04 -0.32353084E-04 -0.25112501E-04 -0.17838433E-04 -0.10595991E-04
 -0.34482899E-05  0.35440417E-05  0.10323330E-04  0.16835279E-04  0.23029355E-04
  0.28859129E-04  0.34282575E-04  0.39262321E-04  0.43765852E-04  0.47765673E-04
  0.51239412E-04  0.54169887E-04  0.56545123E-04  0.58358318E-04  0.59607775E-04
  0.60296781E-04  0.60433457E-04  0.60030557E-04  0.59105248E-04  0.57678839E-04
  0.55776497E-04  0.53426929E-04  0.50662039E-04  0.47516577E-04  0.44027756E-04
  0.40234871E-04  0.36178906E-04  0.31902130E-04  0.27447700E-04  0.22859263E-04
  0.18180560E-04  0.13455047E-04  0.87255203E-05  0.40337619E-05 -0.57980188E-06
 -0.50764181E-05 -0.94193040E-05 -0.13573920E-04 -0.17508215E-04 -0.21192847E-04
 -0.24601370E-04 -0.27710399E-04 -0.30499733E-04 -0.32952462E-04 -0.35055029E-04
 -0.36797270E-04 -0.38172422E-04 -0.39177098E-04 -0.39811240E-04 -0.40078036E-04
 -0.39983816E-04 -0.39537923E-04 -0.38752562E-04 -0.37642622E-04 -0.36225485E-04
 -0.34520817E-04 -0.32550341E-04 -0.30337600E-04 -0.27907709E-04 -0.25287102E-04
 -0.22503265E-04 -0.19584478E-04 -0.16559548E-04 -0.13457545E-04 -0.10307543E-04
 -0.71383676E-05 -0.39783480E-05 -0.85508476E-06  0.22047761E-05  0.51757526E-05
  0.80337226E-05  0.10756102E-04  0.13322009E-04  0.15712404E-04  0.17910216E-04
  0.19900445E-04  0.21670247E-04  0.23209000E-04  0.24508340E-04  0.25562188E-04
  0.26366751E-04  0.26920502E-04  0.27224146E-04  0.27280560E-04  0.27094722E-04
  0.26673621E-04  0.26026150E-04  0.25162988E-04  0.24096466E-04  0.22840424E-04
  0.21410057E-04  0.19821753E-04  0.18092923E-04  0.16241828E-04  0.14287400E-04
  0.12249066E-04  0.10146562E-04  0.79997601E-05  0.58284875E-05  0.36523586E-05
  0.14906067E-05 -0.63807498E-06 -0.27156844E-05 -0.47250529E-05 -0.66499767E-05
 -0.84753377E-05 -0.10187212E-04 -0.11772964E-04 -0.13221333E-04 -0.14522498E-04
 -0.15668135E-04 -0.16651456E-04 -0.17467238E-04 -0.18111834E-04 -0.18583170E-04
 -0.18880734E-04 -0.19005544E-04 -0.18960109E-04 -0.18748374E-04 -0.18375658E-04
 -0.17848577E-04 -0.17174960E-04 -0.16363757E-04 -0.15424936E-04 -0.14369373E-04
 -0.13208744E-04 -0.11955402E-04 -0.10622258E-04 -0.92226548E-05 -0.77702438E-05
 -0.62788590E-05 -0.47623926E-05 -0.32346728E-05 -0.17093449E-05 -0.19975566E-06
  0.12811565E-05  0.27209662E-05  0.41078589E-05  0.54307214E-05  0.66792248E-05
  0.78438983E-05  0.89161947E-05  0.98885462E-05  0.10754411E-04  0.11508309E-04
  0.12145849E-04  0.12663746E-04  0.13059825E-04  0.13333021E-04  0.13483364E-04
  0.13511960E-04  0.13420955E-04  0.13213500E-04  0.12893705E-04  0.12466577E-04
  0.11937966E-04  0.11314497E-04  0.10603490E-04  0.98128926E-05  0.89511904E-05
  0.80273268E-05  0.70506149E-05  0.60306492E-05  0.49772167E-05  0.39002076E-05
  0.28095277E-05  0.17150109E-05  0.62633571E-06 -0.44705646E-06 -0.14960391E-05
 -0.25118738E-05 -0.34862792E-05 -0.44114945E-05 -0.52803367E-05 -0.60862526E-05
 -0.68233637E-05 -0.74865048E-05 -0.80712552E-05 -0.85739633E-05 -0.89917639E-05
 -0.93225881E-05 -0.95651665E-05 -0.97190252E-05 -0.97844749E-05 -0.97625934E-05
 -0.96552022E-05 -0.94648360E-05 -0.91947081E-05 -0.88486692E-05 -0.84311621E-05
 -0.79471720E-05 -0.74021732E-05 -0.68020717E-05 -0.61531466E-05 -0.54619878E-05
 -0.47354330E-05 -0.39805039E-05 -0.32043411E-05 -0.24141400E-05 -0.16170872E-05
 -0.82029757E-06 -0.30754068E-07  0.74475101E-06  0.14996717E-05  0.22277607E-05
  0.29231189E-05  0.35802399E-05  0.41940512E-05  0.47599505E-05  0.52738375E-05
  0.57321400E-05  0.61318362E-05  0.64704709E-05  0.67461664E-05  0.69576289E-05
  0.71041494E-05  0.71855991E-05  0.72024201E-05  0.71556119E-05  0.70467122E-05
  0.68777745E-05  0.66513403E-05  0.63704092E-05  0.60384039E-05  0.56591332E-05
  0.52367523E-05  0.47757197E-05  0.42807540E-05  0.37567873E-05  0.32089192E-05
  0.26423688E-05  0.20624276E-05  0.14744121E-05  0.88361641E-06  0.29526742E-06
 -0.28552025E-06 -0.85378664E-06 -0.14047670E-05 -0.19339300E-05 -0.24370132E-05
 -0.29100553E-05 -0.33494260E-05 -0.37518514E-05 -0.41144368E-05 -0.44346851E-05
 -0.47105120E-05 -0.49402572E-05 -0.51226911E-05 -0.52570190E-05 -0.53428796E-05
 -0.53803417E-05 -0.53698959E-05 -0.53124431E-05 -0.52092797E-05 -0.50620798E-05
 -0.48728742E-05 -0.46440266E-05 -0.43782072E-05 -0.40783647E-05 -0.37476957E-05
 -0.33896126E-05 -0.30077103E-05 -0.26057320E-05 -0.21875337E-05 -0.17570493E-05
 -0.13182543E-05 -0.87513097E-06 -0.43163353E-06  0.83461776E-08  0.44101134E-06
  0.86269174E-06  0.12698737E-05  0.16592280E-05  0.20276361E-05  0.23722136E-05
  0.26903317E-05  0.29796358E-05  0.32380616E-05  0.34638484E-05  0.36555494E-05
  0.38120392E-05  0.39325185E-05  0.40165154E-05  0.40638848E-05  0.40748037E-05
  0.40497650E-05  0.39895676E-05  0.38953049E-05  0.37683503E-05  0.36103409E-05
  0.34231586E-05  0.32089103E-05  0.29699054E-05  0.27086328E-05  0.24277362E-05
  0.21299885E-05  0.18182657E-05  0.14955202E-05  0.11647537E-05  0.82899034E-06
  0.49124997E-06  0.15452193E-06 -0.17826057E-06 -0.50424511E-06 -0.82068364E-06
 -0.11249548E-05 -0.14145849E-05 -0.16872667E-05 -0.19408777E-05 -0.21734950E-05
 -0.23834091E-05 -0.25691360E-05 -0.27294257E-05 -0.28632704E-05 -0.29699087E-05
 -0.30488290E-05 -0.30997696E-05 -0.31227174E-05 -0.31179042E-05 -0.30858006E-05
 -0.30271085E-05 -0.29427513E-05 -0.28338622E-05 -0.27017716E-05 -0.25479919E-05
 -0.23742020E-05 -0.21822298E-05 -0.19740340E-05 -0.17516853E-05 -0.15173464E-05
 -0.12732515E-05 -0.10216864E-05 -0.76496716E-06 -0.50541976E-06 -0.24535961E-06
  0.12928500E-07  0.26720984E-06  0.51531844E-06  0.75517498E-06  0.98480357E-06
  0.12023474E-05  0.14060833E-05  0.15944343E-05  0.17659820E-05  0.19194755E-05
  0.20538407E-05  0.21681866E-05  0.22618103E-05  0.23342007E-05  0.23850393E-05
  0.24142012E-05  0.24217523E-05  0.24079465E-05  0.23732206E-05  0.23181876E-05
  0.22436287E-05  0.21504846E-05  0.20398440E-05  0.19129327E-05  0.17711006E-05
  0.16158081E-05  0.14486117E-05  0.12711493E-05  0.10851242E-05  0.89228983E-06
  0.69443351E-06  0.49336031E-06  0.29087712E-06  0.88776904E-07 -0.11117680E-06
 -0.30726479E-06 -0.49782653E-06 -0.68127380E-06 -0.85610353E-06 -0.10209096E-05
 -0.11743937E-05 -0.13153752E-05 -0.14427997E-05 -0.15557464E-05 -0.16534339E-05
 -0.17352258E-05 -0.18006332E-05 -0.18493177E-05 -0.18810916E-05 -0.18959176E-05
 -0.18939072E-05 -0.18753172E-05 -0.18405456E-05 -0.17901262E-05 -0.17247218E-05
 -0.16451168E-05 -0.15522086E-05 -0.14469980E-05 -0.13305793E-05 -0.12041292E-05
 -0.10688953E-05 -0.92618476E-06 -0.77735132E-06 -0.62378340E-06 -0.46689128E-06
 -0.30809452E-06 -0.14880950E-06  0.95629657E-08  0.16564954E-06  0.31811602E-06
  0.46567837E-06  0.60711327E-06  0.74126791E-06  0.86706906E-06  0.98353134E-06
  0.10897646E-05  0.11849803E-05  0.12684971E-05  0.13397452E-05  0.13982698E-05
  0.14437336E-05  0.14759180E-05  0.14947234E-05  0.15001683E-05  0.14923878E-05
  0.14716306E-05  0.14382556E-05  0.13927266E-05  0.13356077E-05  0.12675561E-05
  0.11893160E-05  0.11017102E-05  0.10056322E-05  0.90203750E-06  0.79193419E-06
  0.67637366E-06  0.55644072E-06  0.43324378E-06  0.30790477E-06  0.18154926E-06
  0.55296542E-07 -0.69750025E-07 -0.19251242E-06 -0.31194705E-06 -0.42705332E-06
 -0.53688187E-06 -0.64054210E-06 -0.73720921E-06 -0.82613044E-06 -0.90663074E-06
 -0.97811760E-06 -0.10400851E-05 -0.10921172E-05 -0.11338902E-05 -0.11651742E-05
 -0.11858340E-05 -0.11958291E-05 -0.11952126E-05 -0.11841296E-05 -0.11628147E-05
 -0.11315888E-05 -0.10908551E-05 -0.10410948E-05 -0.98286127E-06 -0.91677495E-06
 -0.84351662E-06 -0.76382083E-06 -0.67846879E-06 -0.58828090E-06 -0.49410914E-06
 -0.39682919E-06 -0.29733250E-06 -0.19651832E-06 -0.95285728E-07  0.54741892E-08
  0.10488600E-06  0.20209737E-06  0.29628620E-06  0.38666739E-06  0.47249921E-06
  0.55308923E-06  0.62779971E-06  0.69605245E-06  0.75733310E-06  0.81119477E-06
  0.85726112E-06  0.89522872E-06  0.92486874E-06  0.94602802E-06  0.95862943E-06
  0.96267158E-06  0.95822786E-06  0.94544485E-06  0.92454011E-06  0.89579939E-06
  0.85957325E-06  0.81627322E-06  0.76636741E-06  0.71037569E-06  0.64886459E-06
  0.58244165E-06  0.51174971E-06  0.43746079E-06  0.36026991E-06  0.28088868E-06
  0.20003895E-06  0.11844636E-06  0.36833933E-07 -0.44084143E-07 -0.12360867E-06
 -0.20106136E-06 -0.27579044E-06 -0.34717606E-06 -0.41463529E-06 -0.47762670E-06
 -0.53565465E-06 -0.58827296E-06 -0.63508825E-06 -0.67576268E-06 -0.71001622E-06
 -0.73762841E-06 -0.75843949E-06 -0.77235108E-06 -0.77932629E-06 -0.77938926E-06
 -0.77262421E-06 -0.75917397E-06 -0.73923801E-06 -0.71307003E-06 -0.68097503E-06
 -0.64330608E-06 -0.60046062E-06 -0.55287645E-06 -0.50102746E-06 -0.44541899E-06
 -0.38658309E-06 -0.32507355E-06 -0.26146077E-06 -0.19632665E-06 -0.13025929E-06
 -0.63847848E-07  0.23226199E-08  0.67676240E-07  0.13165121E-06  0.19370454E-06
  0.25331657E-06  0.30999518E-06  0.36327981E-06  0.41274507E-06  0.45800402E-06
 atomic pseudo charge-density
  0.11000000E+02  0.10989108E+02  0.10956526E+02  0.10902536E+02  0.10827600E+02
  0.10732351E+02  0.10617580E+02  0.10484218E+02  0.10333322E+02  0.10166051E+02
  0.99836454E+01  0.97874093E+01  0.95786872E+01  0.93588454E+01  0.91292534E+01
  0.88912675E+01  0.86462164E+01  0.83953884E+01  0.81400209E+01  0.78812922E+01
  0.76203148E+01  0.73581314E+01  0.70957112E+01  0.68339488E+01  0.65736640E+01
  0.63156028E+01  0.60604385E+01  0.58087748E+01  0.55611483E+01  0.53180319E+01
  0.50798384E+01  0.48469241E+01  0.46195928E+01  0.43980992E+01  0.41826531E+01
  0.39734224E+01  0.37705371E+01  0.35740924E+01  0.33841518E+01  0.32007500E+01
  0.30238958E+01  0.28535749E+01  0.26897515E+01  0.25323717E+01  0.23813646E+01
  0.22366447E+01  0.20981136E+01  0.19656613E+01  0.18391682E+01  0.17185063E+01
  0.16035401E+01  0.14941282E+01  0.13901242E+01  0.12913774E+01  0.11977343E+01
  0.11090385E+01  0.10251323E+01  0.94585678E+00  0.87105253E+00  0.80056032E+00
  0.73422142E+00  0.67187809E+00  0.61337396E+00  0.55855438E+00  0.50726670E+00
  0.45936057E+00  0.41468817E+00  0.37310440E+00  0.33446710E+00  0.29863716E+00
  0.26547870E+00  0.23485917E+00  0.20664942E+00  0.18072381E+00  0.15696027E+00
  0.13524034E+00  0.11544919E+00  0.97475698E-01  0.81212390E-01  0.66555499E-01
  0.53404933E-01  0.41664269E-01  0.31240731E-01  0.22045157E-01  0.13991969E-01
  0.69991311E-02  0.98810229E-03 -0.41162111E-02 -0.83855114E-02 -0.11888168E-01
 -0.14689277E-01 -0.16850731E-01 -0.18431280E-01 -0.19486607E-01 -0.20069399E-01
 -0.20229419E-01 -0.20013586E-01 -0.19466050E-01 -0.18628271E-01 -0.17539100E-01
 -0.16234861E-01 -0.14749427E-01 -0.13114310E-01 -0.11358737E-01 -0.95097365E-02
 -0.75922183E-02 -0.56290580E-02 -0.36411785E-02 -0.16476318E-02  0.33431963E-03
  0.22891220E-02  0.42028503E-02  0.60631295E-02  0.78590564E-02  0.95811223E-02
  0.11221138E-01  0.12772158E-01  0.14228408E-01  0.15585215E-01  0.16838934E-01
  0.17986880E-01  0.19027265E-01  0.19959126E-01  0.20782268E-01  0.21497198E-01
  0.22105069E-01  0.22607618E-01  0.23007115E-01  0.23306303E-01  0.23508354E-01
  0.23616814E-01  0.23635554E-01  0.23568732E-01  0.23420739E-01  0.23196168E-01
  0.22899767E-01  0.22536408E-01  0.22111045E-01  0.21628689E-01  0.21094369E-01
  0.20513112E-01  0.19889906E-01  0.19229686E-01  0.18537301E-01  0.17817501E-01
  0.17074914E-01  0.16314028E-01  0.15539179E-01  0.14754534E-01  0.13964081E-01
  0.13171618E-01  0.12380744E-01  0.11594853E-01  0.10817125E-01  0.10050528E-01
  0.92978065E-02  0.85614869E-02  0.78438733E-02  0.71470494E-02  0.64728796E-02
  0.58230120E-02  0.51988818E-02  0.46017161E-02  0.40325390E-02  0.34921776E-02
  0.29812685E-02  0.25002657E-02  0.20494476E-02  0.16289257E-02  0.12386535E-02
  0.87843487E-03  0.54793386E-03  0.24668394E-03 -0.25902237E-04 -0.27052314E-03
 -0.48797851E-03 -0.67915954E-03 -0.84503914E-03 -0.98666222E-03 -0.11051362E-02
 -0.12016216E-02 -0.12773229E-02 -0.13334797E-02 -0.13713579E-02 -0.13922418E-02
 -0.13974257E-02 -0.13882064E-02 -0.13658763E-02 -0.13317162E-02 -0.12869889E-02
 -0.12329335E-02 -0.11707597E-02 -0.11016427E-02 -0.10267187E-02 -0.94708047E-03
 -0.86377390E-03 -0.77779458E-03 -0.69008502E-03 -0.60153228E-03 -0.51296603E-03
 -0.42515701E-03 -0.33881597E-03 -0.25459293E-03 -0.17307686E-03 -0.94795743E-04
 -0.20216968E-04  0.50251955E-04  0.11626235E-03  0.17752304E-03  0.23379876E-03
  0.28490831E-03  0.33072247E-03  0.37116173E-03  0.40619384E-03  0.43583118E-03
  0.46012803E-03  0.47917770E-03  0.49310954E-03  0.50208597E-03  0.50629936E-03
  0.50596896E-03  0.50133774E-03  0.49266936E-03  0.48024503E-03  0.46436052E-03
  0.44532316E-03  0.42344901E-03  0.39905999E-03  0.37248125E-03  0.34403854E-03
  0.31405580E-03  0.28285282E-03  0.25074308E-03  0.21803172E-03  0.18501370E-03
  0.15197208E-03  0.11917647E-03  0.86881737E-04  0.55326709E-04  0.24733220E-04
 -0.46947764E-05 -0.32771896E-04 -0.59331851E-04 -0.84227816E-04 -0.10733265E-03
 -0.12853894E-03 -0.14775893E-03 -0.16492433E-03 -0.17998589E-03 -0.19291304E-03
 -0.20369318E-03 -0.21233111E-03 -0.21884816E-03 -0.22328135E-03 -0.22568245E-03
 -0.22611694E-03 -0.22466298E-03 -0.22141023E-03 -0.21645875E-03 -0.20991778E-03
 -0.20190454E-03 -0.19254302E-03 -0.18196276E-03 -0.17029767E-03 -0.15768478E-03
 -0.14426314E-03 -0.13017263E-03 -0.11555288E-03 -0.10054223E-03 -0.85276722E-04
 -0.69889121E-04 -0.54508064E-04 -0.39257219E-04 -0.24254527E-04 -0.96115242E-05
  0.45672773E-05  0.18184924E-04  0.31152485E-04  0.43389435E-04  0.54823965E-04
  0.65393214E-04  0.75043425E-04  0.83730033E-04  0.91417673E-04  0.98080123E-04
  0.10370018E-03  0.10826949E-03  0.11178826E-03  0.11426500E-03  0.11571615E-03
  0.11616566E-03  0.11564458E-03  0.11419057E-03  0.11184734E-03  0.10866417E-03
  0.10469528E-03  0.99999309E-04  0.94638646E-04  0.88678864E-04  0.82188091E-04
  0.75236399E-04  0.67895199E-04  0.60236637E-04  0.52333013E-04  0.44256212E-04
  0.36077161E-04  0.27865303E-04  0.19688108E-04  0.11610608E-04  0.36949684E-05
 -0.39999089E-05 -0.11418740E-04 -0.18510177E-04 -0.25227092E-04 -0.31526804E-04
 -0.37371289E-04 -0.42727321E-04 -0.47566594E-04 -0.51865790E-04 -0.55606613E-04
 -0.58775775E-04 -0.61364957E-04 -0.63370717E-04 -0.64794379E-04 -0.65641876E-04
 -0.65923567E-04 -0.65654029E-04 -0.64851813E-04 -0.63539185E-04 -0.61741841E-04
 -0.59488605E-04 -0.56811113E-04 -0.53743480E-04 -0.50321962E-04 -0.46584604E-04
 -0.42570896E-04 -0.38321413E-04 -0.33877468E-04 -0.29280763E-04 -0.24573046E-04
 -0.19795784E-04 -0.14989837E-04 -0.10195156E-04 -0.54504874E-05 -0.79310077E-06
  0.37414660E-05  0.81196424E-05  0.12310038E-04  0.16283633E-04  0.20013944E-04
  0.23477167E-04  0.26652295E-04  0.29521211E-04  0.32068753E-04  0.34282757E-04
  0.36154079E-04  0.37676580E-04  0.38847103E-04  0.39665418E-04  0.40134147E-04
  0.40258668E-04  0.40047002E-04  0.39509682E-04  0.38659599E-04  0.37511844E-04
  0.36083530E-04  0.34393599E-04  0.32462628E-04  0.30312624E-04  0.27966806E-04
  0.25449393E-04  0.22785384E-04  0.20000335E-04  0.17120145E-04  0.14170833E-04
  0.11178333E-04  0.81682814E-05  0.51658222E-05  0.21954156E-05 -0.71934225E-06
 -0.35558880E-05 -0.62928475E-05 -0.89101794E-05 -0.11389304E-04 -0.13713220E-04
 -0.15866598E-04 -0.17835872E-04 -0.19609301E-04 -0.21177022E-04 -0.22531086E-04
 -0.23665476E-04 -0.24576109E-04 -0.25260826E-04 -0.25719364E-04 -0.25953309E-04
 -0.25966049E-04 -0.25762696E-04 -0.25350009E-04 -0.24736300E-04 -0.23931333E-04
 -0.22946207E-04 -0.21793240E-04 -0.20485837E-04 -0.19038361E-04 -0.17465990E-04
 -0.15784580E-04 -0.14010516E-04 -0.12160570E-04 -0.10251755E-04 -0.83011828E-05
 -0.63259199E-05 -0.43428514E-05 -0.23685474E-05 -0.41913510E-06  0.14898231E-05
  0.33434435E-05  0.51276275E-05  0.68291593E-05  0.84357944E-05  0.99363381E-05
  0.11320714E-04  0.12580021E-04  0.13706583E-04  0.14693983E-04  0.15537086E-04
  0.16232059E-04  0.16776371E-04  0.17168785E-04  0.17409342E-04  0.17499333E-04
  0.17441261E-04  0.17238797E-04  0.16896722E-04  0.16420868E-04  0.15818044E-04
  0.15095964E-04  0.14263161E-04  0.13328903E-04  0.12303097E-04  0.11196201E-04
  0.10019123E-04  0.87831192E-05  0.74997013E-05  0.61805312E-05  0.48373242E-05
  0.34817516E-05  0.21253453E-05  0.77940622E-06 -0.54508413E-06 -0.18375473E-05
 -0.30878867E-05 -0.42865610E-05 -0.54246514E-05 -0.64939222E-05 -0.74868751E-05
 -0.83967962E-05 -0.92177951E-05 -0.99448373E-05 -0.10573768E-04 -0.11101331E-04
 -0.11525173E-04 -0.11843850E-04 -0.12056818E-04 -0.12164422E-04 -0.12167874E-04
 -0.12069224E-04 -0.11871332E-04 -0.11577824E-04 -0.11193046E-04 -0.10722020E-04
 -0.10170384E-04 -0.95443338E-05 -0.88505634E-05 -0.80961984E-05 -0.72887288E-05
 -0.64359399E-05 -0.55458429E-05 -0.46266032E-05 -0.36864708E-05 -0.27337098E-05
 -0.17765298E-05 -0.82301898E-06  0.11892040E-06  0.10416342E-05  0.19377751E-05
  0.28003574E-05  0.36228083E-05  0.43990147E-05  0.51233649E-05  0.57907858E-05
  0.63967751E-05  0.69374274E-05  0.74094561E-05  0.78102085E-05  0.81376761E-05
  0.83904996E-05  0.85679676E-05  0.86700106E-05  0.86971901E-05  0.86506815E-05
  0.85322534E-05  0.83442418E-05  0.80895203E-05  0.77714663E-05  0.73939234E-05
  0.69611611E-05  0.64778315E-05  0.59489232E-05  0.53797143E-05  0.47757224E-05
  0.41426549E-05  0.34863577E-05  0.28127641E-05  0.21278439E-05  0.14375526E-05
  0.74778273E-06  0.64315107E-07 -0.60722676E-06 -0.12614210E-05 -0.18930888E-05
 -0.24973334E-05 -0.30695757E-05 -0.36055870E-05 -0.41015175E-05 -0.45539224E-05
 -0.49597829E-05 -0.53165239E-05 -0.56220277E-05 -0.58746435E-05 -0.60731931E-05
 -0.62169719E-05 -0.63057470E-05 -0.63397503E-05 -0.63196690E-05 -0.62466309E-05
 -0.61221883E-05 -0.59482969E-05 -0.57272923E-05 -0.54618645E-05 -0.51550286E-05
 -0.48100940E-05 -0.44306319E-05 -0.40204405E-05 -0.35835098E-05 -0.31239841E-05
 -0.26461256E-05 -0.21542758E-05 -0.16528185E-05 -0.11461420E-05 -0.63860232E-06
 -0.13448748E-06  0.36201740E-06  0.84686327E-06  0.13161688E-05  0.17662499E-05
  0.21936474E-05  0.25951519E-05  0.29678264E-05  0.33090268E-05  0.36164181E-05
  0.38879898E-05  0.41220661E-05  0.43173152E-05  0.44727543E-05  0.45877516E-05
  0.46620261E-05  0.46956438E-05  0.46890115E-05  0.46428673E-05  0.45582692E-05
  0.44365803E-05  0.42794531E-05  0.40888099E-05  0.38668227E-05  0.36158905E-05
  0.33386156E-05  0.30377782E-05  0.27163101E-05  0.23772678E-05  0.20238044E-05
  0.16591417E-05  0.12865422E-05  0.90928073E-06  0.53061696E-06  0.15376814E-06
 -0.21811712E-06 -0.58198417E-06 -0.93489644E-06 -0.12740582E-05 -0.15968355E-05
 -0.19007759E-05 -0.21836261E-05 -0.24433472E-05 -0.26781288E-05 -0.28864002E-05
 -0.30668395E-05 -0.32183811E-05 -0.33402200E-05 -0.34318148E-05 -0.34928872E-05
 -0.35234209E-05 -0.35236568E-05 -0.34940872E-05 -0.34354475E-05 -0.33487056E-05
 -0.32350508E-05 -0.30958797E-05 -0.29327809E-05 -0.27475192E-05 -0.25420173E-05
 -0.23183373E-05 -0.20786613E-05 -0.18252708E-05 -0.15605260E-05 -0.12868448E-05
 -0.10066814E-05 -0.72250538E-06 -0.43678008E-06 -0.15194257E-06  0.12961672E-06
  0.40557329E-06  0.67368709E-06  0.93181999E-06  0.11779521E-05  0.14101971E-05
  0.16268155E-05  0.18262276E-05  0.20070235E-05  0.21679729E-05  0.23080322E-05
  0.24263505E-05  0.25222737E-05  0.25953466E-05  0.26453141E-05  0.26721197E-05
  0.26759030E-05  0.26569955E-05  0.26159148E-05  0.25533569E-05  0.24701884E-05
  0.23674354E-05  0.22462732E-05  0.21080139E-05  0.19540929E-05  0.17860551E-05
  0.16055402E-05  0.14142672E-05  0.12140193E-05  0.10066269E-05  0.79395231E-06
  0.57787325E-06  0.36026673E-06  0.14299342E-06 -0.72117831E-07 -0.28328489E-06
 -0.48878657E-06 -0.68697622E-06 -0.87629438E-06 -0.10552806E-05 -0.12225840E-05
 -0.13769734E-05 -0.15173452E-05 -0.16427312E-05 -0.17523045E-05 -0.18453839E-05
 -0.19214381E-05 -0.19800873E-05 -0.20211042E-05 -0.20444136E-05 -0.20500905E-05
 -0.20383576E-05 -0.20095807E-05 -0.19642636E-05 -0.19030416E-05 -0.18266745E-05
 -0.17360379E-05 -0.16321142E-05 -0.15159826E-05 -0.13888089E-05 -0.12518338E-05
 -0.11063619E-05 -0.95374920E-06 -0.79539133E-06 -0.63271099E-06 -0.46714563E-06
 -0.30013514E-06 -0.13310966E-06  0.32522236E-07  0.19538511E-06  0.35414771E-06
  0.50753347E-06  0.65433043E-06  0.79340048E-06  0.92368773E-06  0.10442262E-05
  0.11541466E-05  0.12526821E-05  0.13391733E-05  0.14130720E-05  0.14739444E-05
  0.15214727E-05  0.15554563E-05  0.15758115E-05  0.15825707E-05  0.15758799E-05
  0.15559963E-05  0.15232842E-05  0.14782104E-05  0.14213385E-05  0.13533232E-05
  0.12749029E-05  0.11868926E-05  0.10901757E-05  0.98569581E-06  0.87444757E-06
  0.75746781E-06  0.63582608E-06  0.51061524E-06  0.38294189E-06  0.25391692E-06
  0.12464607E-06 -0.37792488E-08 -0.13029089E-06 -0.25385264E-06 -0.37346837E-06
 -0.48818987E-06 -0.59712406E-06 -0.69943967E-06 -0.79437327E-06 -0.88123474E-06
 -0.95941190E-06 -0.10283745E-05 -0.10876776E-05 -0.11369638E-05 -0.11759649E-05
 -0.12045034E-05 -0.12224920E-05 -0.12299331E-05 -0.12269178E-05 -0.12136236E-05
 -0.11903117E-05 -0.11573234E-05 -0.11150764E-05 -0.10640597E-05 -0.10048291E-05
 -0.93800081E-06 -0.86424612E-06 -0.78428448E-06 -0.69887693E-06 -0.60881914E-06
 -0.51493419E-06 -0.41806532E-06 -0.31906853E-06 -0.21880526E-06 -0.11813507E-06
 -0.17908506E-07  0.81039918E-07  0.17789846E-06  0.27188461E-06  0.36225122E-06
  0.44829223E-06  0.52934800E-06  0.60481011E-06  0.67412578E-06  0.73680161E-06
  0.79240689E-06  0.84057629E-06  0.88101195E-06  0.91348503E-06  0.93783659E-06
  0.95397792E-06  0.96189028E-06  0.96162405E-06  0.95329729E-06  0.93709381E-06
  0.91326066E-06  0.88210517E-06  0.84399154E-06  0.79933694E-06  0.74860731E-06
  0.69231273E-06  0.63100257E-06  0.56526031E-06  0.49569820E-06  0.42295174E-06
  0.34767404E-06  0.27053013E-06  0.19219122E-06  0.11332903E-06  0.34610203E-07
 -0.43309234E-07 -0.11978914E-06 -0.19421041E-06 -0.26597980E-06 -0.33453452E-06
 -0.39934652E-06 -0.45992635E-06 -0.51582672E-06 -0.56664564E-06 -0.61202909E-06
 -0.65167335E-06 -0.68532675E-06 -0.71279109E-06 -0.73392252E-06 -0.74863197E-06
 -0.75688509E-06 -0.75870185E-06 -0.75415553E-06 -0.74337141E-06 -0.72652498E-06
 -0.70383979E-06 -0.67558491E-06 -0.64207206E-06 -0.60365245E-06 -0.56071326E-06
 -0.51367396E-06 -0.46298237E-06 -0.40911053E-06 -0.35255046E-06 -0.29380978E-06
 -0.23340731E-06 -0.17186856E-06 -0.10972130E-06 -0.47491171E-07  0.14302695E-07
  0.75151863E-07  0.13456267E-06  0.19206014E-06  0.24719162E-06  0.29953027E-06
  0.34867823E-06  0.39426955E-06  0.43597272E-06  0.47349302E-06  0.50657442E-06
  0.53500119E-06  0.55859912E-06  0.57723641E-06  0.59082419E-06  0.59931667E-06
  0.60271092E-06  0.60104633E-06  0.59440370E-06  0.58290402E-06  0.56670691E-06
  0.54600882E-06  0.52104084E-06  0.49206640E-06  0.45937857E-06  0.42329733E-06
  0.38416649E-06  0.34235058E-06  0.29823152E-06  0.25220526E-06  0.20467830E-06
  0.15606422E-06  0.10678014E-06  0.57243238E-07  0.78673129E-08 -0.40940594E-07
 -0.88783469E-07 -0.13527747E-06 -0.18005492E-06 -0.22276712E-06 -0.26308698E-06
 -0.30071146E-06 -0.33536369E-06 -0.36679497E-06 -0.39478643E-06 -0.41915041E-06
 -0.43973168E-06 -0.45640819E-06 -0.46909175E-06 -0.47772822E-06 -0.48229759E-06
 -0.48281366E-06 -0.47932349E-06 -0.47190659E-06 -0.46067386E-06 -0.44576624E-06
 -0.42735319E-06 -0.40563091E-06 -0.38082042E-06 -0.35316537E-06 -0.32292976E-06
 -0.29039556E-06 -0.25586009E-06 -0.21963343E-06 -0.18203569E-06 -0.14339424E-06
 -0.10404095E-06 -0.64309418E-07 -0.24532154E-07  0.14962084E-07  0.53850967E-07
  0.91821158E-07  0.12857077E-06  0.16381170E-06  0.19727181E-06  0.22869701E-06
  0.25785303E-06  0.28452719E-06  0.30852980E-06  0.32969550E-06  0.34788423E-06
  0.36298216E-06  0.37490223E-06  0.38358455E-06  0.38899659E-06  0.39113305E-06
  0.39001564E-06  0.38569252E-06  0.37823760E-06  0.36774961E-06  0.35435101E-06
  0.33818670E-06  0.31942252E-06  0.29824370E-06  0.27485305E-06  0.24946914E-06
  0.22232428E-06  0.19366248E-06  0.16373730E-06  0.13280967E-06  0.10114567E-06
  0.69014268E-07  0.36685110E-07  0.44263018E-08 -0.27497771E-07 -0.58828557E-07
 -0.89315386E-07 -0.11871743E-06 -0.14680553E-06 -0.17336399E-06 -0.19819212E-06
 -0.22110574E-06 -0.24193846E-06 -0.26054289E-06 -0.27679156E-06 -0.29057777E-06
 -0.30181621E-06 -0.31044340E-06 -0.31641799E-06 -0.31972080E-06 -0.32035478E-06
 -0.31834467E-06 -0.31373658E-06 -0.30659740E-06 -0.29701397E-06 -0.28509215E-06
 -0.27095579E-06 -0.25474546E-06 -0.23661714E-06 -0.21674078E-06 -0.19529875E-06
 -0.17248420E-06 -0.14849941E-06 -0.12355396E-06 -0.97863028E-07 -0.71645500E-07
 -0.45122188E-07 -0.18513991E-07  0.79599051E-08  0.34083796E-07  0.59647181E-07
  0.84446421E-07  0.10828633E-06  0.13098166E-06  0.15235853E-06  0.17225570E-06
  0.19052575E-06  0.20703614E-06  0.22167015E-06  0.23432760E-06  0.24492558E-06
  0.25339888E-06  0.25970032E-06  0.26380103E-06  0.26569038E-06  0.26537597E-06
  0.26288331E-06  0.25825548E-06  0.25155253E-06  0.24285089E-06  0.23224251E-06
  0.21983398E-06  0.20574553E-06  0.19010986E-06  0.17307096E-06  0.15478285E-06
  0.13540814E-06  0.11511670E-06  0.94084171E-07  0.72490452E-07  0.50518225E-07
  0.28351421E-07  0.61737128E-08 -0.15832982E-07 -0.37489962E-07 -0.58623172E-07
   15.1178079086314      T
 Non local Part
           2           2   1.35590663981811     
   23.9436435475820        23.0856290344186        23.0856290344186     
   22.2570706775768     
 Reciprocal Space Part
  0.00000000E+00 -0.24725990E+00 -0.98176549E+00 -0.21818784E+01 -0.38121436E+01
 -0.58241862E+01 -0.81579352E+01 -0.10743143E+02 -0.13501163E+02 -0.16346937E+02
 -0.19191147E+02 -0.21942478E+02 -0.24509923E+02 -0.26805090E+02 -0.28744443E+02
 -0.30251421E+02 -0.31258384E+02 -0.31708344E+02 -0.31556434E+02 -0.30771069E+02
 -0.29334800E+02 -0.27244812E+02 -0.24513070E+02 -0.21166114E+02 -0.17244500E+02
 -0.12801916E+02 -0.79039852E+01 -0.26267919E+01  0.29448233E+01  0.87191694E+01
  0.14599753E+02  0.20487423E+02  0.26282558E+02  0.31887240E+02  0.37207366E+02
  0.42154652E+02  0.46648469E+02  0.50617484E+02  0.54001064E+02  0.56750417E+02
  0.58829432E+02  0.60215234E+02  0.60898419E+02  0.60882974E+02  0.60185911E+02
  0.58836605E+02  0.56875868E+02  0.54354800E+02  0.51333422E+02  0.47879163E+02
  0.44065210E+02  0.39968784E+02  0.35669380E+02  0.31247012E+02  0.26780502E+02
  0.22345861E+02  0.18014796E+02  0.13853360E+02  0.99207986E+01  0.62685871E+01
  0.29396944E+01 -0.31929246E-01 -0.26216312E+01 -0.48141070E+01 -0.66032300E+01
 -0.79916737E+01 -0.89903450E+01 -0.96176508E+01 -0.98986240E+01 -0.98639368E+01
 -0.95488308E+01 -0.89919962E+01 -0.82344290E+01 -0.73182983E+01 -0.62858500E+01
 -0.51783749E+01 -0.40352628E+01 -0.28931637E+01 -0.17852713E+01 -0.74074133E+00
  0.21574818E+00  0.10642905E+01  0.17898984E+01  0.23825124E+01  0.28368747E+01
  0.31522842E+01  0.33322417E+01  0.33840064E+01  0.33180780E+01  0.31476253E+01
  0.28878803E+01  0.25555172E+01  0.21680340E+01  0.17431569E+01  0.12982796E+01
  0.84995460E+00  0.41344679E+00  0.23581921E-02 -0.37166905E+00 -0.69916803E+00
 Real Space Part
  0.00000000E+00  0.16322712E+00  0.65195369E+00  0.14633198E+01  0.25925737E+01
  0.40330945E+01  0.57764225E+01  0.78122996E+01  0.10128718E+02  0.12711974E+02
  0.15546738E+02  0.18616122E+02  0.21901763E+02  0.25383909E+02  0.29041516E+02
  0.32852347E+02  0.36793080E+02  0.40839425E+02  0.44966238E+02  0.49147650E+02
  0.53357194E+02  0.57567938E+02  0.61752626E+02  0.65883814E+02  0.69934014E+02
  0.73875844E+02  0.77682172E+02  0.81326267E+02  0.84781950E+02  0.88023742E+02
  0.91027017E+02  0.93768153E+02  0.96224678E+02  0.98375419E+02  0.10020065E+03
  0.10168222E+03  0.10280372E+03  0.10355060E+03  0.10391028E+03  0.10387231E+03
  0.10342848E+03  0.10257292E+03  0.10130220E+03  0.99615459E+02  0.97514435E+02
  0.95003593E+02  0.92090158E+02  0.88784169E+02  0.85098516E+02  0.81048958E+02
  0.76654118E+02  0.71935470E+02  0.66917289E+02  0.61626598E+02  0.56093069E+02
  0.50348917E+02  0.44428747E+02  0.38369387E+02  0.32209682E+02  0.25990255E+02
  0.19753237E+02  0.13541964E+02  0.74006392E+01  0.13739579E+01 -0.44932914E+01
 -0.10156662E+02 -0.15572509E+02 -0.20698474E+02 -0.25493988E+02 -0.29920785E+02
 -0.33943431E+02 -0.37529847E+02 -0.40651824E+02 -0.43285526E+02 -0.45411963E+02
 -0.47017444E+02 -0.48093963E+02 -0.48639552E+02 -0.48658581E+02 -0.48161959E+02
 -0.47167292E+02 -0.45698960E+02 -0.43788072E+02 -0.41472409E+02 -0.38796186E+02
 -0.35809844E+02 -0.32569631E+02 -0.29137243E+02 -0.25579271E+02 -0.21966681E+02
 -0.18374186E+02 -0.14879579E+02 -0.11563080E+02 -0.85065775E+01 -0.57929099E+01
 -0.35052572E+01 -0.17262747E+01 -0.53413425E+00 -0.27337388E-01  0.00000000E+00
 Reciprocal Space Part
  0.00000000E+00  0.25771444E+00  0.10234643E+01  0.22752542E+01  0.39770387E+01
  0.60796249E+01  0.85219053E+01  0.11232388E+02  0.14130989E+02  0.17131034E+02
  0.20141428E+02  0.23068939E+02  0.25820523E+02  0.28305656E+02  0.30438597E+02
  0.32140532E+02  0.33341554E+02  0.33982409E+02  0.34015998E+02  0.33408570E+02
  0.32140592E+02  0.30207280E+02  0.27618767E+02  0.24399923E+02  0.20589813E+02
  0.16240838E+02  0.11417546E+02  0.61951809E+01  0.65798265E+00 -0.51027106E+01
 -0.10990506E+02 -0.16906102E+02 -0.22749475E+02 -0.28422065E+02 -0.33828895E+02
 -0.38880588E+02 -0.43495221E+02 -0.47599989E+02 -0.51132626E+02 -0.54042573E+02
 -0.56291848E+02 -0.57855627E+02 -0.58722502E+02 -0.58894445E+02 -0.58386458E+02
 -0.57225944E+02 -0.55451815E+02 -0.53113360E+02 -0.50268910E+02 -0.46984342E+02
 -0.43331450E+02 -0.39386242E+02 -0.35227183E+02 -0.30933455E+02 -0.26583254E+02
 -0.22252170E+02 -0.18011690E+02 -0.13927847E+02 -0.10060055E+02 -0.64601402E+01
 -0.31715817E+01 -0.22898938E+00  0.23421968E+01  0.45257772E+01  0.63146436E+01
  0.77104242E+01  0.87229388E+01  0.93694885E+01  0.96740024E+01  0.96660713E+01
  0.93798975E+01  0.88531902E+01  0.81260381E+01  0.72397892E+01  0.62359646E+01
  0.51552339E+01  0.40364746E+01  0.29159350E+01  0.18265176E+01  0.79719482E+00
 -0.14743613E+00 -0.98745334E+00 -0.17077675E+01 -0.22981395E+01 -0.27530669E+01
 -0.30715493E+01 -0.32567472E+01 -0.33155505E+01 -0.32580730E+01 -0.30970928E+01
 -0.28474574E+01 -0.25254728E+01 -0.21482946E+01 -0.17333385E+01 -0.12977271E+01
 -0.85778538E+00 -0.42859668E+00 -0.23629715E-01  0.34555877E+00  0.66954062E+00
 Real Space Part
  0.00000000E+00 -0.15809811E+00 -0.63145859E+00 -0.14172843E+01 -0.25109278E+01
 -0.39059138E+01 -0.55939690E+01 -0.75650620E+01 -0.98074501E+01 -0.12307736E+02
 -0.15050930E+02 -0.18020523E+02 -0.21198567E+02 -0.24565756E+02 -0.28101525E+02
 -0.31784149E+02 -0.35590844E+02 -0.39497887E+02 -0.43480727E+02 -0.47514109E+02
 -0.51572204E+02 -0.55628735E+02 -0.59657119E+02 -0.63630600E+02 -0.67522390E+02
 -0.71305818E+02 -0.74954469E+02 -0.78442335E+02 -0.81743961E+02 -0.84834594E+02
 -0.87690331E+02 -0.90288265E+02 -0.92606633E+02 -0.94624958E+02 -0.96324196E+02
 -0.97686868E+02 -0.98697204E+02 -0.99341270E+02 -0.99607094E+02 -0.99484794E+02
 -0.98966686E+02 -0.98047397E+02 -0.96723965E+02 -0.94995928E+02 -0.92865410E+02
 -0.90337188E+02 -0.87418756E+02 -0.84120362E+02 -0.80455046E+02 -0.76438654E+02
 -0.72089827E+02 -0.67429987E+02 -0.62483289E+02 -0.57276553E+02 -0.51839175E+02
 -0.46203008E+02 -0.40402219E+02 -0.34473111E+02 -0.28453918E+02 -0.22384572E+02
 -0.16306428E+02 -0.10261967E+02 -0.42944536E+01  0.15524237E+01  0.72349556E+01
  0.12709837E+02  0.17934620E+02  0.22868189E+02  0.27471253E+02  0.31706851E+02
  0.35540862E+02  0.38942519E+02  0.41884905E+02  0.44345443E+02  0.46306350E+02
  0.47755073E+02  0.48684660E+02  0.49094089E+02  0.48988557E+02  0.48379661E+02
  0.47285544E+02  0.45730952E+02  0.43747181E+02  0.41372010E+02  0.38649451E+02
  0.35629537E+02  0.32367902E+02  0.28925417E+02  0.25367642E+02  0.21764310E+02
  0.18188708E+02  0.14717020E+02  0.11427685E+02  0.84006555E+01  0.57166965E+01
  0.34567924E+01  0.17013046E+01  0.52608423E+00  0.26912355E-01  0.00000000E+00
 Non local Part
           0           2   1.35590663981811     
   5.87648139105154        8.66823624879811        8.66823624879811     
   12.8009766963121     
 Reciprocal Space Part
  0.52880533E+02  0.52207184E+02  0.50198874E+02  0.46890591E+02  0.42339882E+02
  0.36625732E+02  0.29847016E+02  0.22120582E+02  0.13578977E+02  0.43678913E+01
 -0.53566372E+01 -0.15431200E+02 -0.25688109E+02 -0.35958535E+02 -0.46075634E+02
 -0.55877595E+02 -0.65210543E+02 -0.73931244E+02 -0.81909557E+02 -0.89030585E+02
 -0.95196490E+02 -0.10032793E+03 -0.10436511E+03 -0.10726843E+03 -0.10901868E+03
 -0.10961689E+03 -0.10908373E+03 -0.10745858E+03 -0.10479821E+03 -0.10117516E+03
 -0.96675916E+02 -0.91398755E+02 -0.85451525E+02 -0.78949246E+02 -0.72011669E+02
 -0.64760828E+02 -0.57318629E+02 -0.49804539E+02 -0.42333413E+02 -0.35013500E+02
 -0.27944674E+02 -0.21216907E+02 -0.14909015E+02 -0.90876958E+01 -0.38068546E+01
  0.89275903E+00  0.49836293E+01  0.84512646E+01  0.11293724E+02  0.13520901E+02
  0.15153590E+02  0.16222372E+02  0.16766349E+02  0.16831766E+02  0.16470554E+02
  0.15738838E+02  0.14695442E+02  0.13400424E+02  0.11913678E+02  0.10293630E+02
  0.85960523E+01  0.68730173E+01  0.51720111E+01  0.35352135E+01  0.19989548E+01
  0.59335076E+00 -0.65788648E+00 -0.17374681E+01 -0.26343896E+01 -0.33436463E+01
 -0.38658212E+01 -0.42065630E+01 -0.43759764E+01 -0.43879449E+01 -0.42594099E+01
 -0.40096269E+01 -0.36594206E+01 -0.32304581E+01 -0.27445600E+01 -0.22230626E+01
 -0.16862479E+01 -0.11528492E+01 -0.63964268E+00 -0.16112868E+00  0.27069500E+00
  0.64646761E+00  0.95951141E+00  0.12057943E+01  0.13838165E+01  0.14944305E+01
  0.15406042E+01  0.15271394E+01  0.14603570E+01  0.13477606E+01  0.11976911E+01
  0.10189831E+01  0.82063390E+00  0.61149369E+00  0.39998588E+00  0.19386359E+00
 Real Space Part
 -0.21333874E+03 -0.21327467E+03 -0.21308233E+03 -0.21276136E+03 -0.21231113E+03
 -0.21173082E+03 -0.21101932E+03 -0.21017536E+03 -0.20919742E+03 -0.20808382E+03
 -0.20683267E+03 -0.20544197E+03 -0.20390954E+03 -0.20223312E+03 -0.20041035E+03
 -0.19843882E+03 -0.19631609E+03 -0.19403972E+03 -0.19160730E+03 -0.18901652E+03
 -0.18626516E+03 -0.18335115E+03 -0.18027263E+03 -0.17702794E+03 -0.17361574E+03
 -0.17003498E+03 -0.16628501E+03 -0.16236557E+03 -0.15827690E+03 -0.15401972E+03
 -0.14959536E+03 -0.14500572E+03 -0.14025341E+03 -0.13534174E+03 -0.13027477E+03
 -0.12505739E+03 -0.11969534E+03 -0.11419527E+03 -0.10856476E+03 -0.10281235E+03
 -0.96947632E+02 -0.90981189E+02 -0.84924680E+02 -0.78790831E+02 -0.72593445E+02
 -0.66347400E+02 -0.60068636E+02 -0.53774134E+02 -0.47481885E+02 -0.41210837E+02
 -0.34980841E+02 -0.28812572E+02 -0.22727440E+02 -0.16747485E+02 -0.10895250E+02
 -0.51936424E+01  0.33422624E+00  0.56652143E+01  0.10776344E+02  0.15645011E+02
  0.20249208E+02  0.24567761E+02  0.28580583E+02  0.32268923E+02  0.35615639E+02
  0.38605453E+02  0.41225219E+02  0.43464176E+02  0.45314192E+02  0.46769987E+02
  0.47829339E+02  0.48493257E+02  0.48766126E+02  0.48655799E+02  0.48173667E+02
  0.47334671E+02  0.46157255E+02  0.44663277E+02  0.42877877E+02  0.40829260E+02
  0.38548461E+02  0.36069041E+02  0.33426737E+02  0.30659096E+02  0.27805034E+02
  0.24904420E+02  0.21997591E+02  0.19124903E+02  0.16326245E+02  0.13640590E+02
  0.11105540E+02  0.87569109E+01  0.66283397E+01  0.47509382E+01  0.31529695E+01
  0.18596400E+01  0.89284274E+00  0.26952700E+00  0.12589385E-01  0.00000000E+00
 Reciprocal Space Part
 -0.26921011E+02 -0.26488866E+02 -0.25200091E+02 -0.23077513E+02 -0.20158678E+02
 -0.16495111E+02 -0.12151304E+02 -0.72034509E+01 -0.17379629E+01  0.41502125E+01
  0.10359425E+02  0.16783275E+02  0.23312636E+02  0.29837715E+02  0.36250104E+02
  0.42444768E+02  0.48321952E+02  0.53788944E+02  0.58761681E+02  0.63166153E+02
  0.66939578E+02  0.70031343E+02  0.72403677E+02  0.74032058E+02  0.74905350E+02
  0.75025667E+02  0.74407985E+02  0.73079493E+02  0.71078739E+02  0.68454554E+02
  0.65264810E+02  0.61575040E+02  0.57456936E+02  0.52986778E+02  0.48243828E+02
  0.43308710E+02  0.38261830E+02  0.33181850E+02  0.28144268E+02  0.23220109E+02
  0.18474766E+02  0.13967003E+02  0.97481411E+01  0.58614341E+01  0.23416385E+01
 -0.78521622E+00 -0.35018639E+01 -0.57996515E+01 -0.76782138E+01 -0.91449884E+01
 -0.10214589E+02 -0.10908061E+02 -0.11252032E+02 -0.11277799E+02 -0.11020359E+02
 -0.10517413E+02 -0.98083841E+01 -0.89334379E+01 -0.79325640E+01 -0.68447116E+01
 -0.57070080E+01 -0.45540707E+01 -0.34174233E+01 -0.23250251E+01 -0.13009162E+01
 -0.36498207E+00  0.46716572E+00  0.11841966E+01  0.17789630E+01  0.22483058E+01
  0.25927762E+01  0.28162848E+01  0.29256932E+01  0.29303610E+01  0.28416653E+01
  0.26725045E+01  0.24368027E+01  0.21490268E+01  0.18237280E+01  0.14751201E+01
  0.11167002E+01  0.76092283E+00  0.41892926E+00  0.10033775E+00 -0.18690519E+00
 -0.43661239E+00 -0.64438467E+00 -0.80758423E+00 -0.92525761E+00 -0.99801447E+00
 -0.10278690E+01 -0.10180514E+01 -0.97279800E+00 -0.89712672E+00 -0.79660720E+00
 -0.67713210E+00 -0.54469687E+00 -0.40519411E+00 -0.26422788E+00 -0.12695215E+00
 Real Space Part
  0.14641261E+03  0.14636915E+03  0.14623869E+03  0.14602097E+03  0.14571559E+03
  0.14532198E+03  0.14483941E+03  0.14426703E+03  0.14360381E+03  0.14284864E+03
  0.14200024E+03  0.14105728E+03  0.14001829E+03  0.13888177E+03  0.13764612E+03
  0.13630973E+03  0.13487097E+03  0.13332821E+03  0.13167983E+03  0.12992427E+03
  0.12806005E+03  0.12608578E+03  0.12400021E+03  0.12180224E+03  0.11949095E+03
  0.11706566E+03  0.11452590E+03  0.11187152E+03  0.10910265E+03  0.10621980E+03
  0.10322384E+03  0.10011605E+03  0.96898171E+02  0.93572408E+02  0.90141493E+02
  0.86608694E+02  0.82977856E+02  0.79253429E+02  0.75440491E+02  0.71544773E+02
  0.67572687E+02  0.63531335E+02  0.59428531E+02  0.55272804E+02  0.51073409E+02
  0.46840324E+02  0.42584238E+02  0.38316544E+02  0.34049310E+02  0.29795254E+02
  0.25567697E+02  0.21380520E+02  0.17248100E+02  0.13185241E+02  0.92070872E+01
  0.53290345E+01  0.15666211E+01 -0.20645893E+01 -0.55491362E+01 -0.88718021E+01
 -0.12017763E+02 -0.14972748E+02 -0.17723203E+02 -0.20256468E+02 -0.22560949E+02
 -0.24626297E+02 -0.26443583E+02 -0.28005473E+02 -0.29306385E+02 -0.30342645E+02
 -0.31112624E+02 -0.31616855E+02 -0.31858127E+02 -0.31841555E+02 -0.31574623E+02
 -0.31067194E+02 -0.30331481E+02 -0.29381989E+02 -0.28235424E+02 -0.26910555E+02
 -0.25428053E+02 -0.23810291E+02 -0.22081112E+02 -0.20265579E+02 -0.18389688E+02
 -0.16480085E+02 -0.14563744E+02 -0.12667664E+02 -0.10818550E+02 -0.90425028E+01
 -0.73647233E+01 -0.58092288E+01 -0.43985907E+01 -0.31537020E+01 -0.20935604E+01
 -0.12351272E+01 -0.59315485E+00 -0.17910176E+00 -0.83649020E-02  0.00000000E+00
 Non local Part
           1           2   1.35590663981811     
   8.73084394424148        12.8476818778708        12.8476818778708     
   19.1633654064087     
 Reciprocal Space Part
  0.00000000E+00  0.70444848E+00  0.13866397E+01  0.20248135E+01  0.25981923E+01
  0.30874450E+01  0.34751166E+01  0.37460164E+01  0.38875541E+01  0.38900172E+01
  0.37467833E+01  0.34544633E+01  0.30129717E+01  0.24255233E+01  0.16985572E+01
  0.84158989E+00 -0.13299916E+00 -0.12102426E+01 -0.23729158E+01 -0.36019139E+01
 -0.48766665E+01 -0.61755809E+01 -0.74765023E+01 -0.87571814E+01 -0.99957387E+01
 -0.11171114E+02 -0.12263493E+02 -0.13254701E+02 -0.14128551E+02 -0.14871151E+02
 -0.15471150E+02 -0.15919929E+02 -0.16211723E+02 -0.16343692E+02 -0.16315914E+02
 -0.16131321E+02 -0.15795584E+02 -0.15316927E+02 -0.14705900E+02 -0.13975110E+02
 -0.13138911E+02 -0.12213066E+02 -0.11214393E+02 -0.10160393E+02 -0.90688840E+01
 -0.79576301E+01 -0.68439950E+01 -0.57446095E+01 -0.46750698E+01 -0.36496697E+01
 -0.26811715E+01 -0.17806189E+01 -0.95719591E+00 -0.21813236E+00  0.43134414E+00
  0.98800957E+00  0.14506008E+01  0.18197318E+01  0.20977718E+01  0.22886912E+01
  0.23978795E+01  0.24319404E+01  0.23984717E+01  0.23058343E+01  0.21629171E+01
  0.19789040E+01  0.17630477E+01  0.15244559E+01  0.12718944E+01  0.10136110E+01
  0.75718309E+00  0.50939185E+00  0.27612385E+00  0.62301754E-01 -0.12815645E+00
 -0.29235024E+00 -0.42838275E+00 -0.53532247E+00 -0.61314297E+00 -0.66264361E+00
 -0.68535468E+00 -0.68343035E+00 -0.65953327E+00 -0.61671435E+00 -0.55829142E+00
 -0.48773007E+00 -0.40852983E+00 -0.32411851E+00 -0.23775701E+00 -0.15245660E+00
 -0.70910109E-01  0.45620564E-02  0.72050475E-01  0.13007994E+00  0.17761771E+00
  0.21406777E+00  0.23925201E+00  0.25338027E+00  0.25701046E+00  0.25100120E+00
 Real Space Part
  0.00000000E+00 -0.13473668E+01 -0.26917087E+01 -0.40300023E+01 -0.53592275E+01
 -0.66763690E+01 -0.79784182E+01 -0.92623755E+01 -0.10525252E+02 -0.11764073E+02
 -0.12975879E+02 -0.14157732E+02 -0.15306716E+02 -0.16419942E+02 -0.17494555E+02
 -0.18527736E+02 -0.19516707E+02 -0.20458740E+02 -0.21351164E+02 -0.22191370E+02
 -0.22976820E+02 -0.23705054E+02 -0.24373705E+02 -0.24980502E+02 -0.25523286E+02
 -0.26000018E+02 -0.26408793E+02 -0.26747852E+02 -0.27015596E+02 -0.27210599E+02
 -0.27331620E+02 -0.27377625E+02 -0.27347794E+02 -0.27241540E+02 -0.27058527E+02
 -0.26798681E+02 -0.26462209E+02 -0.26049614E+02 -0.25561707E+02 -0.24999627E+02
 -0.24364851E+02 -0.23659206E+02 -0.22884885E+02 -0.22044451E+02 -0.21140851E+02
 -0.20177419E+02 -0.19157878E+02 -0.18086347E+02 -0.16967332E+02 -0.15805724E+02
 -0.14606790E+02 -0.13376158E+02 -0.12119797E+02 -0.10843998E+02 -0.95553428E+01
 -0.82606723E+01 -0.69670451E+01 -0.56816947E+01 -0.44119776E+01 -0.31653183E+01
 -0.19491465E+01 -0.77083153E+00  0.36239012E+00  0.14434895E+01  0.24657242E+01
  0.34227192E+01  0.43085492E+01  0.51178207E+01  0.58457527E+01  0.64882545E+01
  0.70419987E+01  0.75044890E+01  0.78741181E+01  0.81502179E+01  0.83330975E+01
  0.84240705E+01  0.84254657E+01  0.83406243E+01  0.81738854E+01  0.79305480E+01
  0.76168252E+01  0.72397796E+01  0.68072416E+01  0.63277230E+01  0.58103063E+01
  0.52645387E+01  0.47003038E+01  0.41277013E+01  0.35569122E+01  0.29980724E+01
  0.24611430E+01  0.19557872E+01  0.14912530E+01  0.10762657E+01  0.71892678E+00
  0.42664154E+00  0.20603392E+00  0.62506385E-01  0.31613731E-02  0.00000000E+00
 Reciprocal Space Part
  0.00000000E+00  0.88882990E-02  0.25674383E-01  0.58049014E-01  0.11329392E+00
  0.19808971E+00  0.31833826E+00  0.47900403E+00  0.68397796E+00  0.93596725E+00
  0.12364138E+01  0.15854427E+01  0.19818433E+01  0.24230807E+01  0.29053406E+01
  0.34236035E+01  0.39717479E+01  0.45426799E+01  0.51284848E+01  0.57205989E+01
  0.63099958E+01  0.68873834E+01  0.74434066E+01  0.79688518E+01  0.84548466E+01
  0.88930521E+01  0.92758423E+01  0.95964663E+01  0.98491910E+01  0.10029419E+02
  0.10133783E+02  0.10160210E+02  0.10107957E+02  0.99776188E+01  0.97711073E+01
  0.94915999E+01  0.91434637E+01  0.87321549E+01  0.82640967E+01  0.77465387E+01
  0.71874018E+01  0.65951115E+01  0.59784255E+01  0.53462569E+01  0.47074996E+01
  0.40708585E+01  0.34446884E+01  0.28368450E+01  0.22545512E+01  0.17042812E+01
  0.11916645E+01  0.72141055E+00  0.29725674E+00 -0.78061601E-01 -0.40281828E+00
 -0.67628150E+00 -0.89867829E+00 -0.10711399E+01 -0.11956299E+01 -0.12748580E+01
 -0.13121811E+01 -0.13114958E+01 -0.12771240E+01 -0.12136953E+01 -0.11260292E+01
 -0.10190191E+01 -0.89752218E+00 -0.76625535E+00 -0.62970192E+00 -0.49202874E+00
 -0.35701617E+00 -0.22800165E+00 -0.10783747E+00  0.11369330E-02  0.97108486E-01
  0.17879010E+00  0.24540741E+00  0.29667368E+00  0.33275425E+00  0.35422215E+00
  0.36200651E+00  0.35733569E+00  0.34167686E+00  0.31667393E+00  0.28408557E+00
  0.24572503E+00  0.20340320E+00  0.15887627E+00  0.11379911E+00  0.69685348E-01
  0.27874590E-01 -0.10492574E-01 -0.44491780E-01 -0.73424308E-01 -0.96819022E-01
 -0.11442731E+00 -0.12621170E+00 -0.13232891E+00 -0.13310828E+00 -0.12902660E+00
 Real Space Part
  0.00000000E+00  0.80166763E+00  0.16016524E+01  0.23982722E+01  0.31898462E+01
  0.39746958E+01  0.47511452E+01  0.55175228E+01  0.62721616E+01  0.70134010E+01
  0.77395880E+01  0.84490788E+01  0.91402404E+01  0.98114531E+01  0.10461112E+02
  0.11087632E+02  0.11689447E+02  0.12265015E+02  0.12812823E+02  0.13331390E+02
  0.13819270E+02  0.14275058E+02  0.14697394E+02  0.15084971E+02  0.15436537E+02
  0.15750903E+02  0.16026953E+02  0.16263643E+02  0.16460015E+02  0.16615204E+02
  0.16728442E+02  0.16799070E+02  0.16826543E+02  0.16810443E+02  0.16750484E+02
  0.16646522E+02  0.16498564E+02  0.16306778E+02  0.16071498E+02  0.15793235E+02
  0.15472688E+02  0.15110744E+02  0.14708490E+02  0.14267220E+02  0.13788437E+02
  0.13273858E+02  0.12725418E+02  0.12145270E+02  0.11535787E+02  0.10899557E+02
  0.10239382E+02  0.95582664E+01  0.88594157E+01  0.81462194E+01  0.74222387E+01
  0.66911895E+01  0.59569221E+01  0.52233980E+01  0.44946634E+01  0.37748196E+01
  0.30679908E+01  0.23782882E+01  0.17097720E+01  0.10664109E+01  0.45203980E+00
 -0.12968459E+00 -0.67532819E+00 -0.11817248E+01 -0.16460208E+01 -0.20657182E+01
 -0.24387157E+01 -0.27633472E+01 -0.30384155E+01 -0.32632212E+01 -0.34375864E+01
 -0.35618722E+01 -0.36369873E+01 -0.36643898E+01 -0.36460827E+01 -0.35845965E+01
 -0.34829677E+01 -0.33447072E+01 -0.31737591E+01 -0.29744567E+01 -0.27514654E+01
 -0.25097278E+01 -0.22543959E+01 -0.19907678E+01 -0.17242163E+01 -0.14601206E+01
 -0.12037973E+01 -0.96043290E+00 -0.73502054E+00 -0.53230055E+00 -0.35670482E+00
 -0.21231555E+00 -0.10281769E+00 -0.31273788E-01 -0.15859454E-02  0.00000000E+00
 PAW radial sets
         339   1.20975759109801     
(5E20.12)                                
 augmentation charges (non sperical)
  0.432691841440E+00  0.423096525974E+00 -0.159349076491E+00 -0.232034535118E+00 -0.237510417343E+00
 -0.326100123730E+00  0.423096525974E+00  0.413679734245E+00 -0.157650151339E+00 -0.229522030671E+00
 -0.234187489924E+00 -0.321735497405E+00 -0.159349076491E+00 -0.157650151339E+00 -0.168275961942E+00
 -0.253579665351E+00 -0.829126575003E-01 -0.181590914866E+00 -0.232034535118E+00 -0.229522030671E+00
 -0.253579665351E+00 -0.382238217567E+00 -0.125566519879E+00 -0.274151390122E+00 -0.237510417343E+00
 -0.234187489924E+00 -0.829126575003E-01 -0.125566519879E+00 -0.996817438326E-02 -0.622152117747E-01
 -0.326100123730E+00 -0.321735497405E+00 -0.181590914866E+00 -0.274151390122E+00 -0.622152117747E-01
 -0.174610993181E+00
 uccopancies in atom
  0.200000000704E+01  0.000000000000E+00  0.000000000000E+00  0.000000000000E+00  0.000000000000E+00
  0.000000000000E+00  0.000000000000E+00  0.000000000000E+00  0.000000000000E+00  0.000000000000E+00
  0.000000000000E+00  0.000000000000E+00  0.000000000000E+00  0.000000000000E+00  0.999999999715E+00
  0.000000000000E+00  0.000000000000E+00  0.000000000000E+00  0.000000000000E+00  0.000000000000E+00
  0.000000000000E+00  0.000000000000E+00  0.000000000000E+00  0.000000000000E+00  0.000000000000E+00
  0.000000000000E+00  0.000000000000E+00  0.000000000000E+00  0.000000000000E+00  0.000000000000E+00
  0.000000000000E+00  0.000000000000E+00  0.000000000000E+00  0.000000000000E+00  0.000000000000E+00
  0.000000000000E+00
 grid
  0.676218096901E-04  0.698207022454E-04  0.720910973011E-04  0.744353199400E-04  0.768557708511E-04
  0.793549287874E-04  0.819353531053E-04  0.845996863846E-04  0.873506571354E-04  0.901910825922E-04
  0.931238715989E-04  0.961520275876E-04  0.992786516548E-04  0.102506945737E-03  0.105840215888E-03
  0.109281875670E-03  0.112835449642E-03  0.116504576974E-03  0.120293015174E-03  0.124204643933E-03
  0.128243469101E-03  0.132413626788E-03  0.136719387600E-03  0.141165161011E-03  0.145755499883E-03
  0.150495105124E-03  0.155388830503E-03  0.160441687624E-03  0.165658851052E-03  0.171045663620E-03
  0.176607641894E-03  0.182350481826E-03  0.188280064586E-03  0.194402462586E-03  0.200723945694E-03
  0.207250987663E-03  0.213990272754E-03  0.220948702583E-03  0.228133403192E-03  0.235551732340E-03
  0.243211287046E-03  0.251119911363E-03  0.259285704413E-03  0.267717028682E-03  0.276422518582E-03
  0.285411089297E-03  0.294691945907E-03  0.304274592821E-03  0.314168843508E-03  0.324384830543E-03
  0.334933015991E-03  0.345824202116E-03  0.357069542443E-03  0.368680553183E-03  0.380669125027E-03
  0.393047535320E-03  0.405828460635E-03  0.419024989756E-03  0.432650637084E-03  0.446719356470E-03
  0.461245555514E-03  0.476244110313E-03  0.491730380696E-03  0.507720225959E-03  0.524230021100E-03
  0.541276673593E-03  0.558877640698E-03  0.577050947344E-03  0.595815204586E-03  0.615189628662E-03
  0.635194060675E-03  0.655848986913E-03  0.677175559824E-03  0.699195619684E-03  0.721931716956E-03
  0.745407135392E-03  0.769645915872E-03  0.794672881024E-03  0.820513660648E-03  0.847194717962E-03
  0.874743376697E-03  0.903187849090E-03  0.932557264764E-03  0.962881700568E-03  0.994192211375E-03
  0.102652086188E-02  0.105990075945E-02  0.109436608802E-02  0.112995214310E-02  0.116669536790E-02
  0.120463339072E-02  0.124380506339E-02  0.128425050114E-02  0.132601112362E-02  0.136912969737E-02
  0.141365037957E-02  0.145961876329E-02  0.150708192416E-02  0.155608846863E-02  0.160668858366E-02
  0.165893408821E-02  0.171287848622E-02  0.176857702148E-02  0.182608673416E-02  0.188546651923E-02
  0.194677718677E-02  0.201008152427E-02  0.207544436090E-02  0.214293263391E-02  0.221261545720E-02
  0.228456419207E-02  0.235885252031E-02  0.243555651965E-02  0.251475474170E-02  0.259652829235E-02
  0.268096091487E-02  0.276813907565E-02  0.285815205272E-02  0.295109202726E-02  0.304705417791E-02
  0.314613677831E-02  0.324844129769E-02  0.335407250482E-02  0.346313857529E-02  0.357575120228E-02
  0.369202571097E-02  0.381208117662E-02  0.393604054650E-02  0.406403076585E-02  0.419618290784E-02
  0.433263230781E-02  0.447351870186E-02  0.461898636998E-02  0.476918428377E-02  0.492426625902E-02
  0.508439111322E-02  0.524972282822E-02  0.542043071814E-02  0.559668960277E-02  0.577867998662E-02
  0.596658824374E-02  0.616060680861E-02  0.636093437319E-02  0.656777609042E-02  0.678134378428E-02
  0.700185616676E-02  0.722953906181E-02  0.746462563660E-02  0.770735664034E-02  0.795798065078E-02
  0.821675432881E-02  0.848394268129E-02  0.875981933244E-02  0.904466680405E-02  0.933877680484E-02
  0.964245052913E-02  0.995599896537E-02  0.102797432145E-01  0.106140148191E-01  0.109591561022E-01
  0.113155205189E-01  0.116834730174E-01  0.120633904133E-01  0.124556617750E-01  0.128606888229E-01
  0.132788863399E-01  0.137106825969E-01  0.141565197910E-01  0.146168544984E-01  0.150921581421E-01
  0.155829174745E-01  0.160896350762E-01  0.166128298701E-01  0.171530376536E-01  0.177108116465E-01
  0.182867230581E-01  0.188813616722E-01  0.194953364505E-01  0.201292761570E-01  0.207838300012E-01
  0.214596683035E-01  0.221574831815E-01  0.228779892584E-01  0.236219243954E-01  0.243900504473E-01
  0.251831540421E-01  0.260020473873E-01  0.268475691011E-01  0.277205850718E-01  0.286219893439E-01
  0.295527050343E-01  0.305136852770E-01  0.315059141999E-01  0.325304079320E-01  0.335882156445E-01
  0.346804206249E-01  0.358081413866E-01  0.369725328141E-01  0.381747873460E-01  0.394161361960E-01
  0.406978506139E-01  0.420212431872E-01  0.433876691854E-01  0.447985279483E-01  0.462552643186E-01
  0.477593701214E-01  0.493123856927E-01  0.509159014561E-01  0.525715595518E-01  0.542810555184E-01
  0.560461400292E-01  0.578686206849E-01  0.597503638651E-01  0.616932966390E-01  0.636994087398E-01
  0.657707546014E-01  0.679094554631E-01  0.701177015414E-01  0.723977542732E-01  0.747519486319E-01
  0.771826955181E-01  0.796924842291E-01  0.822838850078E-01  0.849595516750E-01  0.877222243473E-01
  0.905747322429E-01  0.935199965791E-01  0.965610335640E-01  0.997009574852E-01  0.102942983899E+00
  0.106290432924E+00  0.109746732641E+00  0.113315422602E+00  0.117000157457E+00  0.120804710698E+00
  0.124732978519E+00  0.128788983810E+00  0.132976880274E+00  0.137300956684E+00  0.141765641271E+00
  0.146375506263E+00  0.151135272565E+00  0.156049814592E+00  0.161124165266E+00  0.166363521165E+00
  0.171773247847E+00  0.177358885345E+00  0.183126153840E+00  0.189080959519E+00  0.195229400623E+00
  0.201577773694E+00  0.208132580019E+00  0.214900532294E+00  0.221888561493E+00  0.229103823969E+00
  0.236553708780E+00  0.244245845260E+00  0.252188110829E+00  0.260388639061E+00  0.268855828013E+00
  0.277598348827E+00  0.286625154608E+00  0.295945489593E+00  0.305568898621E+00  0.315505236903E+00
  0.325764680118E+00  0.336357734832E+00  0.347295249258E+00  0.358588424369E+00  0.370248825360E+00
  0.382288393503E+00  0.394719458367E+00  0.407554750449E+00  0.420807414208E+00  0.434491021532E+00
  0.448619585630E+00  0.463207575386E+00  0.478269930176E+00  0.493822075168E+00  0.509879937117E+00
  0.526459960677E+00  0.543579125241E+00  0.561254962330E+00  0.579505573545E+00  0.598349649107E+00
  0.617806486996E+00  0.637896012715E+00  0.658638799692E+00  0.680056090355E+00  0.702169817881E+00
  0.725002628659E+00  0.748577905483E+00  0.772919791496E+00  0.798053214916E+00  0.824003914566E+00
  0.850798466229E+00  0.878464309868E+00  0.907029777725E+00  0.936524123334E+00  0.966977551483E+00
  0.998421249143E+00  0.103088741741E+01  0.106440930447E+01  0.109902123968E+01  0.113475866867E+01
  0.117165818970E+01  0.120975759110E+01  0.124909588998E+01  0.128971337221E+01  0.133165163364E+01
  0.137495362270E+01  0.141966368442E+01  0.146582760581E+01  0.151349266276E+01  0.156270766845E+01
  0.161352302335E+01  0.166599076682E+01  0.172016463042E+01  0.177610009291E+01  0.183385443710E+01
  0.189348680849E+01  0.195505827583E+01  0.201863189369E+01  0.208427276700E+01  0.215204811776E+01
  0.222202735384E+01  0.229428214011E+01  0.236888647177E+01  0.244591675019E+01  0.252545186109E+01
  0.260757325538E+01  0.269236503254E+01  0.277991402677E+01  0.287030989589E+01  0.296364521315E+01
  0.306001556209E+01  0.315951963437E+01  0.326225933084E+01  0.336833986594E+01
 aepotential
  0.109419486014E+05  0.109803957353E+05  0.110118555717E+05  0.110358611541E+05  0.110519713329E+05
  0.110597756293E+05  0.110588997291E+05  0.110490107219E+05  0.110298217815E+05  0.110010967345E+05
  0.109626540370E+05  0.109143702952E+05  0.108561828881E+05  0.107880923334E+05  0.107101632854E+05
  0.106225251963E+05  0.105253717992E+05  0.104189598528E+05  0.103036069451E+05  0.101796886717E+05
  0.100476343394E+05  0.990792318474E+04  0.976107841156E+04  0.960766224753E+04  0.944826893061E+04
  0.928351903553E+04  0.911405211205E+04  0.894052056138E+04  0.876358223101E+04  0.858389454808E+04
  0.840210770720E+04  0.821885913055E+04  0.803476778734E+04  0.785042946572E+04  0.766641228791E+04
  0.748325308171E+04  0.730145428554E+04  0.712148147756E+04  0.694376167443E+04  0.676868206830E+04
  0.659658950489E+04  0.642779042656E+04  0.626255133123E+04  0.610109968330E+04  0.594362520089E+04
  0.579028146816E+04  0.564118782775E+04  0.549643146990E+04  0.535606968615E+04  0.522013222208E+04
  0.508862368931E+04  0.496152599167E+04  0.483880072867E+04  0.472039154568E+04  0.460622640309E+04
  0.449621974361E+04  0.439027454091E+04  0.428828421724E+04  0.419013442178E+04  0.409570466517E+04
  0.400486980839E+04  0.391750140715E+04  0.383346891517E+04  0.375264075063E+04  0.367488523350E+04
  0.360007139982E+04  0.352806970089E+04  0.345875259889E+04  0.339199506257E+04  0.332767497505E+04
  0.326567346675E+04  0.320587516797E+04  0.314816840561E+04  0.309244534214E+04  0.303860206509E+04
  0.298653863172E+04  0.293615908557E+04  0.288737143169E+04  0.284008759467E+04  0.279422334927E+04
  0.274969824113E+04  0.270643548288E+04  0.266436184998E+04  0.262340756082E+04  0.258350615698E+04
  0.254459437522E+04  0.250661201870E+04  0.246950183011E+04  0.243320936092E+04  0.239768284762E+04
  0.236287308479E+04  0.232873330751E+04  0.229521907135E+04  0.226228814119E+04  0.222990038325E+04
  0.219801765978E+04  0.216660373159E+04  0.213562416427E+04  0.210504623900E+04  0.207483886892E+04
  0.204497252120E+04  0.201541914261E+04  0.198615209133E+04  0.195714607314E+04  0.192837708190E+04
  0.189982234597E+04  0.187146027745E+04  0.184327042760E+04  0.181523344584E+04  0.178733104284E+04
  0.175954595874E+04  0.173186193473E+04  0.170426368951E+04  0.167673689946E+04  0.164926818314E+04
  0.162184509010E+04  0.159445609387E+04  0.156709058887E+04  0.153973889247E+04  0.151239225083E+04
  0.148504284974E+04  0.145768383009E+04  0.143030930852E+04  0.140291440286E+04  0.137549526329E+04
  0.134804910877E+04  0.132057426934E+04  0.129307023410E+04  0.126553770516E+04  0.123797865754E+04
  0.121039640423E+04  0.118279566696E+04  0.115518265057E+04  0.112756512144E+04  0.109995248635E+04
  0.107235587077E+04  0.104478819317E+04  0.101726422974E+04  0.989800666082E+03  0.962416127679E+03
  0.935131181758E+03  0.907968301408E+03  0.880951782030E+03  0.854107600017E+03  0.827463205151E+03
  0.801047241045E+03  0.774889194314E+03  0.749018983025E+03  0.723466510798E+03  0.698261233704E+03
  0.673431815721E+03  0.649005981596E+03  0.625010710253E+03  0.601472941676E+03  0.578420975301E+03
  0.555886705592E+03  0.533908736574E+03  0.512536220902E+03  0.491832968613E+03  0.471880991560E+03
  0.452782281918E+03  0.434657419449E+03  0.417639803447E+03  0.401864735228E+03  0.387454648451E+03
  0.374501637044E+03  0.363051318421E+03  0.353091226534E+03  0.344546365431E+03  0.337282824734E+03
  0.331118349969E+03  0.325837427451E+03  0.321208069635E+03  0.316997908803E+03  0.312987898099E+03
  0.308982563164E+03  0.304816297742E+03  0.300355792622E+03  0.295499264630E+03  0.290173506513E+03
  0.284329827423E+03  0.277939717395E+03  0.270990793173E+03  0.263483309145E+03  0.255427361416E+03
  0.246840794031E+03  0.237747753671E+03  0.228177799441E+03  0.218165450703E+03  0.207750054961E+03
  0.196975856408E+03  0.185892151935E+03  0.174553431292E+03  0.163019406261E+03  0.151354861721E+03
  0.139629308019E+03  0.127916506505E+03  0.116294067655E+03  0.104843475789E+03  0.936510011854E+02
  0.828098636106E+02  0.724235401088E+02  0.626091053450E+02  0.534981524466E+02  0.452318444699E+02
  0.379471581023E+02  0.317540924381E+02  0.267077818198E+02  0.227829985197E+02  0.198600707100E+02
  0.177311668696E+02  0.161319267414E+02  0.147909839324E+02  0.134752329401E+02  0.120093444372E+02
  0.102688274065E+02  0.816339999962E+01  0.562570573225E+01  0.260822835706E+01 -0.916373097743E+00
 -0.495591722648E+01 -0.950133470762E+01 -0.145301351085E+02 -0.200093628575E+02 -0.258974139442E+02
 -0.321447470554E+02 -0.386938862738E+02 -0.454792402578E+02 -0.524272954644E+02 -0.594576621399E+02
 -0.664851417448E+02 -0.734222143028E+02 -0.801799934128E+02 -0.866642363223E+02 -0.927631098747E+02
 -0.983280234120E+02 -0.103159405387E+03 -0.107020634075E+03 -0.109703326237E+03 -0.111145388747E+03
 -0.111548530731E+03 -0.111364709836E+03 -0.111074903264E+03 -0.110951865595E+03 -0.111044866398E+03
 -0.111316859616E+03 -0.111749304676E+03 -0.112365672919E+03 -0.113211063334E+03 -0.114325535498E+03
 -0.115729073507E+03 -0.117419944829E+03 -0.119380346470E+03 -0.121583198824E+03 -0.123997110549E+03
 -0.126589090522E+03 -0.129325632572E+03 -0.132172903688E+03 -0.135096571724E+03 -0.138061604453E+03
 -0.141032242112E+03 -0.143972252632E+03 -0.146845506858E+03 -0.149616743322E+03 -0.152252275912E+03
 -0.154720261399E+03 -0.156990233125E+03 -0.159032220679E+03 -0.160816559962E+03 -0.162316261146E+03
 -0.163513026168E+03 -0.164405327146E+03 -0.165013767794E+03 -0.165378749277E+03 -0.165550087672E+03
 -0.165574082021E+03 -0.165484828782E+03 -0.165302303438E+03 -0.165035058874E+03 -0.164684120781E+03
 -0.164246090665E+03 -0.163715099050E+03 -0.163083986405E+03 -0.162345109615E+03 -0.161490988156E+03
 -0.160514839606E+03 -0.159410994536E+03 -0.158175217208E+03 -0.156804883309E+03 -0.155299048552E+03
 -0.153658504463E+03 -0.151885678565E+03 -0.149984554782E+03 -0.147960540886E+03 -0.145820312027E+03
 -0.143571642680E+03 -0.141223224814E+03 -0.138784482905E+03 -0.136265387418E+03 -0.133676271529E+03
 -0.131027653925E+03 -0.128330072400E+03 -0.125593929649E+03 -0.122829355627E+03 -0.120046085392E+03
 -0.117253358812E+03 -0.114459836325E+03 -0.111673536533E+03 -0.108901787830E+03 -0.106151197026E+03
 -0.103427629212E+03 -0.100736195759E+03 -0.980812515204E+02 -0.954663972343E+02 -0.928944931615E+02
 -0.903676842947E+02 -0.878874464522E+02 -0.854546539891E+02 -0.830696853856E+02 -0.807325318677E+02
 -0.784429542965E+02 -0.762006245769E+02 -0.740052655929E+02 -0.718567657258E+02 -0.697552568301E+02
 -0.677011493134E+02 -0.656951229342E+02 -0.637380763610E+02 -0.618310416480E+02 -0.599750722019E+02
 -0.581711149425E+02 -0.564198797987E+02 -0.547217216909E+02 -0.530765507019E+02 -0.514837838418E+02
 -0.499423461043E+02 -0.484507202784E+02 -0.470070364042E+02 -0.456091854491E+02
 core charge-density
  0.225006579098E+00  0.236932759137E+00  0.249485279330E+00  0.262696553624E+00  0.276600631456E+00
  0.291233276597E+00  0.306632049480E+00  0.322836393132E+00  0.339887722828E+00  0.357829519597E+00
  0.376707427722E+00  0.396569356331E+00  0.417465585241E+00  0.439448875155E+00  0.462574582352E+00
  0.486900777992E+00  0.512488372150E+00  0.539401242701E+00  0.567706369173E+00  0.597473971658E+00
  0.628777654900E+00  0.661694557638E+00  0.696305507292E+00  0.732695180052E+00  0.770952266442E+00
  0.811169642380E+00  0.853444545784E+00  0.897878758704E+00  0.944578794973E+00  0.993656093343E+00
  0.104522721602E+01  0.109941405251E+01  0.115634402865E+01  0.121615032060E+01  0.127897207366E+01
  0.134495462561E+01  0.141424973422E+01  0.148701580866E+01  0.156341814426E+01  0.164362916026E+01
  0.172782863981E+01  0.181620397178E+01  0.190895039340E+01  0.200627123315E+01  0.210837815270E+01
  0.221549138713E+01  0.232783998201E+01  0.244566202626E+01  0.256920487913E+01  0.269872538998E+01
  0.283449010887E+01  0.297677548621E+01  0.312586805928E+01  0.328206462339E+01  0.344567238509E+01
  0.361700909487E+01  0.379640315617E+01  0.398419370773E+01  0.418073067563E+01  0.438637479146E+01
  0.460149757245E+01  0.482648125932E+01  0.506171870729E+01  0.530761322516E+01  0.556457835731E+01
  0.583303760297E+01  0.611342406676E+01  0.640618003425E+01  0.671175646583E+01  0.703061240186E+01
  0.736321427176E+01  0.771003509925E+01  0.807155359572E+01  0.844825313329E+01  0.884062058899E+01
  0.924914505086E+01  0.967431637706E+01  0.101166235983E+02  0.105765531542E+02  0.110545869541E+02
  0.115512002520E+02  0.120668593274E+02  0.126020189606E+02  0.131571196958E+02  0.137325848808E+02
  0.143288174775E+02  0.149461966336E+02  0.155850740110E+02  0.162457698636E+02  0.169285688619E+02
  0.176337156617E+02  0.183614102149E+02  0.191118028261E+02  0.198849889576E+02  0.206810037898E+02
  0.214998165480E+02  0.223413246080E+02  0.232053473998E+02  0.240916201303E+02  0.249997873532E+02
  0.259293964181E+02  0.268798908381E+02  0.278506036205E+02  0.288407506126E+02  0.298494239230E+02
  0.308755854836E+02  0.319180608313E+02  0.329755331911E+02  0.340465379554E+02  0.351294576635E+02
  0.362225175919E+02  0.373237820808E+02  0.384311517255E+02  0.395423615768E+02  0.406549805005E+02
  0.417664118528E+02  0.428738956416E+02  0.439745123428E+02  0.450651885522E+02  0.461427046518E+02
  0.472037046737E+02  0.482447085397E+02  0.492621268538E+02  0.502522784130E+02  0.512114105914E+02
  0.521357227350E+02  0.530213926831E+02  0.538646065046E+02  0.546615915039E+02  0.554086525108E+02
  0.561022114226E+02  0.567388499121E+02  0.573153551529E+02  0.578287683452E+02  0.582764357479E+02
  0.586560618383E+02  0.589657641300E+02  0.592041290816E+02  0.593702684272E+02  0.594638751508E+02
  0.594852782194E+02  0.594354950784E+02  0.593162808064E+02  0.591301727213E+02  0.588805291369E+02
  0.585715608838E+02  0.582083541404E+02  0.577968830728E+02  0.573440107580E+02  0.568574768713E+02
  0.563458706590E+02  0.558185877984E+02  0.552857698700E+02  0.547582253420E+02  0.542473311911E+02
  0.537649145651E+02  0.533231142323E+02  0.529342219592E+02  0.526105044128E+02  0.523640066957E+02
  0.522063391840E+02  0.521484499486E+02  0.522003856898E+02  0.523710447749E+02  0.526679268199E+02
  0.530968834284E+02  0.536618763348E+02  0.543647487578E+02  0.552050169994E+02  0.561796894928E+02
  0.572831208144E+02  0.585069082730E+02  0.598398385783E+02  0.612678917528E+02  0.627743088444E+02
  0.643397291128E+02  0.659424011738E+02  0.675584710921E+02  0.691623486117E+02  0.707271506148E+02
  0.722252185300E+02  0.736287037893E+02  0.749102126320E+02  0.760434986120E+02  0.770041881991E+02
  0.777705219416E+02  0.783240909232E+02  0.786505458077E+02  0.787402537776E+02  0.785888772782E+02
  0.781978478335E+02  0.775747084457E+02  0.767332993751E+02  0.756937645254E+02  0.744823593235E+02
  0.731310459273E+02  0.716768678056E+02  0.701611031352E+02  0.686282049013E+02  0.671245448394E+02
  0.656969880850E+02  0.643913352377E+02  0.632506780222E+02  0.623137233967E+02  0.616131483103E+02
  0.611740529304E+02  0.610125835441E+02  0.611347970773E+02  0.615358366953E+02  0.621994819753E+02
  0.630981272105E+02  0.641932267090E+02  0.654362267350E+02  0.667699815510E+02  0.681306252669E+02
  0.694498487415E+02  0.706575081556E+02  0.716844706383E+02  0.724655824150E+02  0.729426284950E+02
  0.730671424041E+02  0.728029214243E+02  0.721281077510E+02  0.710367089677E+02  0.695394518926E+02
  0.676638917069E+02  0.654537323468E+02  0.629673531817E+02  0.602755791503E+02  0.574587746495E+02
  0.546033830232E+02  0.517980706653E+02  0.491296645990E+02  0.466790919100E+02  0.445175361042E+02
  0.427030177427E+02  0.412775850343E+02  0.402652674754E+02  0.396709074615E+02  0.394799481899E+02
  0.396592233674E+02  0.401587559077E+02  0.409144963217E+02  0.418518024258E+02  0.428893767686E+02
  0.439433959425E+02  0.449316249178E+02  0.457773236960E+02  0.464127503874E+02  0.467820722178E+02
  0.468435277203E+02  0.465707369328E+02  0.459531216462E+02  0.449954628543E+02  0.437166790396E+02
  0.421479527948E+02  0.403303633265E+02  0.383121987884E+02  0.361461258297E+02  0.338863857011E+02
  0.315861686076E+02  0.292952930473E+02  0.270582867723E+02  0.249129339395E+02  0.228893192086E+02
  0.210093681696E+02  0.192868540707E+02  0.177278167739E+02  0.163313214334E+02  0.150904729486E+02
  0.139936000903E+02  0.130255267203E+02  0.121688554680E+02  0.114051964345E+02  0.107162824087E+02
  0.100849189156E+02  0.949573142735E+01  0.893569114175E+01  0.839441970178E+01  0.786428928062E+01
  0.734034514639E+01  0.682008410494E+01  0.630312531552E+01  0.579081068174E+01  0.528577051151E+01
  0.479148673162E+01  0.431188089343E+01  0.385094786507E+01  0.341245008541E+01  0.299968039142E+01
  0.261529404235E+01  0.226121017932E+01  0.193857375171E+01  0.164776893870E+01  0.138847392846E+01
  0.115974586655E+01  0.960124794777E+00  0.787747096851E+00  0.640460073810E+00  0.515931017563E+00
  0.411745893557E+00  0.325494414589E+00  0.254839788698E+00  0.197572692247E+00  0.151650023231E+00
  0.115219725811E+00  0.866334599859E-01  0.644491508795E-01  0.474255276823E-01  0.345106945452E-01
  0.248266048304E-01  0.176510731151E-01  0.123986879363E-01  0.860170784322E-02  0.589175341313E-02
  0.398286193588E-02  0.265625795013E-02  0.174701590623E-02  0.113265170099E-02  0.723575980452E-03
  0.455270391083E-03  0.282003904475E-03  0.171884801186E-03  0.103039871090E-03  0.607210624791E-04
  0.351569734512E-04  0.199886623436E-04  0.111534077406E-04  0.610412111639E-05  0.327460260970E-05
  0.172079772808E-05  0.885197529105E-06  0.445431295484E-06  0.219093952349E-06  0.105258357264E-06
  0.493532495591E-07  0.225659662263E-07  0.100532688349E-07  0.436016044862E-08
 kinetic energy-density
  0.635800504779E+07  0.630305027269E+07  0.624907510596E+07  0.619607909412E+07  0.614406178663E+07
  0.609302273826E+07  0.604296154024E+07  0.599387783937E+07  0.594577135703E+07  0.589864191286E+07
  0.585248944583E+07  0.580731402896E+07  0.576311590381E+07  0.571989548735E+07  0.567765340251E+07
  0.563639049217E+07  0.559610784419E+07  0.555680680482E+07  0.551848900990E+07  0.548115637595E+07
  0.544481114426E+07  0.540945588924E+07  0.537509352780E+07  0.534172732739E+07  0.530936093578E+07
  0.527799835860E+07  0.524764402673E+07  0.521830273707E+07  0.518997970605E+07  0.516268055770E+07
  0.513641132998E+07  0.511117848163E+07  0.508698888985E+07  0.506384986409E+07  0.504176912813E+07
  0.502075484649E+07  0.500081559263E+07  0.498196038849E+07  0.496419866546E+07  0.494754029078E+07
  0.493199555504E+07  0.491757517302E+07  0.490429028477E+07  0.489215245330E+07  0.488117366096E+07
  0.487136631055E+07  0.486274322100E+07  0.485531762577E+07  0.484910316845E+07  0.484411389929E+07
  0.484036426989E+07  0.483786912686E+07  0.483664370450E+07  0.483670361582E+07  0.483806484188E+07
  0.484074371920E+07  0.484475692498E+07  0.485012145990E+07  0.485685462818E+07  0.486497401457E+07
  0.487449745813E+07  0.488544302217E+07  0.489782896049E+07  0.491167367886E+07  0.492699569204E+07
  0.494381357621E+07  0.496214591386E+07  0.498201123586E+07  0.500342795534E+07  0.502641429161E+07
  0.505098819499E+07  0.507716725510E+07  0.510496860560E+07  0.513440881719E+07  0.516550378621E+07
  0.519826860536E+07  0.523271743141E+07  0.526886333679E+07  0.530671815331E+07  0.534629229648E+07
  0.538759458679E+07  0.543063204950E+07  0.547540970459E+07  0.552193033924E+07  0.557019426652E+07
  0.562019907043E+07  0.567193933057E+07  0.572540633497E+07  0.578058777213E+07  0.583746740985E+07
  0.589602475370E+07  0.595623469218E+07  0.601806712222E+07  0.608148655843E+07  0.614645172907E+07
  0.621291515425E+07  0.628082271007E+07  0.635011318071E+07  0.642071779965E+07  0.649255977753E+07
  0.656555382715E+07  0.663960567931E+07  0.671461159876E+07  0.679045789987E+07  0.686702046773E+07
  0.694416428833E+07  0.702174299238E+07  0.709959841774E+07  0.717756019832E+07  0.725544538339E+07
  0.733305809554E+07  0.741018923540E+07  0.748661624055E+07  0.756210290796E+07  0.763639928915E+07
  0.770924166798E+07  0.778035263260E+07  0.784944125049E+07  0.791620335963E+07  0.798032198695E+07
  0.804146790541E+07  0.809930034137E+07  0.815346784484E+07  0.820360933285E+07  0.824935531731E+07
  0.829032932729E+07  0.832614953464E+07  0.835643059099E+07  0.838078568181E+07  0.839882880131E+07
  0.841017725344E+07  0.841445437037E+07  0.841129245556E+07  0.840033593337E+07  0.838124470259E+07
  0.835369767255E+07  0.831739646564E+07  0.827206926137E+07  0.821747474759E+07  0.815340615105E+07
  0.807969529967E+07  0.799621667339E+07  0.790289139217E+07  0.779969108048E+07  0.768664155078E+07
  0.756382623409E+07  0.743138929176E+07  0.728953833123E+07  0.713854665223E+07  0.697875494790E+07
  0.681057238351E+07  0.663447698397E+07  0.645101525676E+07  0.626080099155E+07  0.606451317845E+07
  0.586289299917E+07  0.565673985151E+07  0.544690638439E+07  0.523429252590E+07  0.501983850725E+07
  0.480451689987E+07  0.458932370588E+07  0.437526857055E+07  0.416336419212E+07  0.395461522200E+07
  0.375000642773E+07  0.355049085052E+07  0.335697775571E+07  0.317032075011E+07  0.299130624021E+07
  0.282064242593E+07  0.265894902305E+07  0.250674790857E+07  0.236445488888E+07  0.223237279186E+07
  0.211068608122E+07  0.199945717974E+07  0.189862466880E+07  0.180800350407E+07  0.172728735107E+07
  0.165605310341E+07  0.159376759798E+07  0.153979649272E+07  0.149341521970E+07  0.145382187339E+07
  0.142015184274E+07  0.139149394427E+07  0.136690776529E+07  0.134544188449E+07  0.132615259378E+07
  0.130812271772E+07  0.129048009554E+07  0.127241527803E+07  0.125319798163E+07  0.123219184776E+07
  0.120886707202E+07  0.118281049899E+07  0.115373282875E+07  0.112147263919E+07  0.108599701308E+07
  0.104739864725E+07  0.100588942312E+07  0.961790530157E+06  0.915519338837E+06  0.867573347740E+06
  0.818511650332E+06  0.768934512297E+06  0.719461775795E+06  0.670710930608E+06  0.623275654422E+06
  0.577705703491E+06  0.534488906032E+06  0.494035732118E+06  0.456667172724E+06  0.422606141262E+06
  0.391972789569E+06  0.364783923356E+06  0.340956561933E+06  0.320315491285E+06  0.302604454605E+06
  0.287500427830E+06  0.274630267117E+06  0.263588891411E+06  0.253958099491E+06  0.245325103635E+06
  0.237299901746E+06  0.229530687839E+06  0.221716624297E+06  0.213617447841E+06  0.205059555520E+06
  0.195938407809E+06  0.186217284836E+06  0.175922635095E+06  0.165136445940E+06  0.153986223751E+06
  0.142633266570E+06  0.131259933775E+06  0.120056606378E+06  0.109209027240E+06  0.988868185823E+05
  0.892340079964E+05  0.803622905658E+05  0.723473694709E+05  0.652280161979E+05  0.590071664976E+05
  0.536547336546E+05  0.491119504703E+05  0.452971110451E+05  0.421121727711E+05  0.394497229681E+05
  0.371997951357E+05  0.352560816801E+05  0.335211730889E+05  0.319105660109E+05  0.303553126124E+05
  0.288033108513E+05  0.272193440552E+05  0.255840589636E+05  0.238921215002E+05  0.221498099848E+05
  0.203723008412E+05  0.185808790321E+05  0.168002635443E+05  0.150562042563E+05  0.133734507116E+05
  0.117741571875E+05  0.102767489506E+05  0.889523065638E+04  0.763890595863E+04  0.651243912464E+04
  0.551618911389E+04  0.464674223578E+04  0.389757563303E+04  0.325979636734E+04  0.272288842018E+04
  0.227543088385E+04  0.190573141868E+04  0.160235129320E+04  0.135451012006E+04  0.115237255469E+04
  0.987227339703E+03  0.851572480317E+03  0.739122391354E+03  0.644753422163E+03  0.564404334968E+03
  0.494947506902E+03  0.434045065202E+03  0.380002308466E+03  0.331627357332E+03  0.288103794456E+03
  0.248884168623E+03  0.213596515311E+03  0.181977130373E+03  0.153818688890E+03  0.128934452732E+03
  0.107136665287E+03  0.882250695285E+02  0.719832590288E+02  0.581802830955E+02  0.465754143595E+02
  0.369244220705E+02  0.289861261165E+02  0.225283986204E+02  0.173331133209E+02  0.131998077779E+02
  0.994802103739E+01  0.741840357098E+01  0.547277804980E+01  0.399336806940E+01  0.288141935333E+01
  0.205542346625E+01  0.144912656190E+01  0.100947186600E+01  0.694589320392E+00  0.471912657562E+00
  0.316475003521E+00  0.209410067320E+00  0.136667181439E+00  0.879347224892E-01  0.557571249186E-01
  0.348251039674E-01  0.214160343879E-01  0.129609572814E-01  0.771573552576E-02  0.451589780349E-02
  0.259725299963E-02  0.146708781861E-02  0.813445016367E-03  0.442464035886E-03  0.235961178621E-03
  0.123292795441E-03  0.630778717752E-04  0.315756041666E-04  0.154539765925E-04  0.738936952143E-05
  0.344908930256E-05  0.157025625449E-05  0.696680399585E-06  0.300961758788E-06
 mkinetic energy-density pseudized
  0.213242272130E-05  0.227335965261E-05  0.242361144358E-05  0.258379373560E-05  0.275456285928E-05
  0.293661852366E-05  0.313070668327E-05  0.333762259453E-05  0.355821407426E-05  0.379338497353E-05
  0.404409888108E-05  0.431138307152E-05  0.459633271452E-05  0.490011536211E-05  0.522397573262E-05
  0.556924081079E-05  0.593732528495E-05  0.632973734354E-05  0.674808485479E-05  0.719408195476E-05
  0.766955607084E-05  0.817645540945E-05  0.871685693861E-05  0.929297489809E-05  0.990716987204E-05
  0.105619584612E-04  0.112600235944E-04  0.120042255218E-04  0.127976135339E-04  0.136434384564E-04
  0.145451659694E-04  0.155064908084E-04  0.165313519024E-04  0.176239485136E-04  0.187887574433E-04
  0.200305513752E-04  0.213544184307E-04  0.227657830174E-04  0.242704280545E-04  0.258745186679E-04
  0.275846274509E-04  0.294077613952E-04  0.313513906007E-04  0.334234788833E-04  0.356325164064E-04
  0.379875544677E-04  0.404982425860E-04  0.431748680391E-04  0.460283980146E-04  0.490705245465E-04
  0.523137124220E-04  0.557712502547E-04  0.594573049323E-04  0.633869796643E-04  0.675763758654E-04
  0.720426591284E-04  0.768041295586E-04  0.818802967556E-04  0.872919597515E-04  0.930612922318E-04
  0.992119333893E-04  0.105769084782E-03  0.112759613592E-03  0.120212162712E-03  0.128157268104E-03
  0.136627483914E-03  0.145657515859E-03  0.155284363429E-03  0.165547471485E-03  0.176488891877E-03
  0.188153455745E-03  0.200588957206E-03  0.213846349181E-03  0.227979952168E-03  0.243047676804E-03
  0.259111261147E-03  0.276236523631E-03  0.294493632745E-03  0.313957394533E-03  0.334707559090E-03
  0.356829147325E-03  0.380412799306E-03  0.405555145641E-03  0.432359203389E-03  0.460934798145E-03
  0.491399014023E-03  0.523876673363E-03  0.558500848157E-03  0.595413405264E-03  0.634765587661E-03
  0.676718634100E-03  0.721444439730E-03  0.769126260359E-03  0.819959463272E-03  0.874152327658E-03
  0.931926897937E-03  0.993519893477E-03  0.105918367843E-02  0.112918729565E-02  0.120381756894E-02
  0.128338027815E-02  0.136820141190E-02  0.145862850311E-02  0.155503205274E-02  0.165780704767E-02
  0.176737457881E-02  0.188418356619E-02  0.200871259800E-02  0.214147189114E-02  0.228300538131E-02
  0.243389295125E-02  0.259475280611E-02  0.276624400582E-02  0.294906916476E-02  0.314397732976E-02
  0.335176704826E-02  0.357328963914E-02  0.380945267962E-02  0.406122372252E-02  0.432963425905E-02
  0.461578394331E-02  0.492084509595E-02  0.524606750509E-02  0.559278354453E-02  0.596241362981E-02
  0.635647203463E-02  0.677657309141E-02  0.722443780120E-02  0.770190088005E-02  0.821091827060E-02
  0.875357514960E-02  0.933209446395E-02  0.994884603025E-02  0.106063562349E-01  0.113073183745E-01
  0.120546036783E-01  0.128512730582E-01  0.137005896341E-01  0.146060320849E-01  0.155713088809E-01
  0.166003734544E-01  0.176974403708E-01  0.188670025653E-01  0.201138497174E-01  0.214430878345E-01
  0.228601601272E-01  0.243708692601E-01  0.259814010673E-01  0.276983498306E-01  0.295287452213E-01
  0.314800810164E-01  0.335603457034E-01  0.357780550988E-01  0.381422871123E-01  0.406627187962E-01
  0.433496658292E-01  0.462141245953E-01  0.492678170250E-01  0.525232383805E-01  0.559937081762E-01
  0.596934244384E-01  0.636375215216E-01  0.678421317127E-01  0.723244508678E-01  0.771028083441E-01
  0.821967415049E-01  0.876270750911E-01  0.934160057769E-01  0.995871922394E-01  0.106165851100E+00
  0.113178859114E+00  0.120654862004E+00  0.128624390372E+00  0.137119983127E+00  0.146176318921E+00
  0.155830356094E+00  0.166121481658E+00  0.177091669914E+00  0.188785651278E+00  0.201251091975E+00
  0.214538785280E+00  0.228702855004E+00  0.243800972005E+00  0.259894584517E+00  0.277049163133E+00
  0.295334461353E+00  0.314824792630E+00  0.335599324898E+00  0.357742393645E+00  0.381343834609E+00
  0.406499337274E+00  0.433310820349E+00  0.461886830522E+00  0.492342965805E+00  0.524802324862E+00
  0.559395983758E+00  0.596263501640E+00  0.635553456917E+00  0.677424015542E+00  0.722043533095E+00
  0.769591192359E+00  0.820257678179E+00  0.874245891407E+00  0.931771703764E+00  0.993064755483E+00
  0.105836929761E+01  0.112794508082E+01  0.120206829259E+01  0.128103254455E+01  0.136514991171E+01
  0.145475202526E+01  0.155019122041E+01  0.165184174062E+01  0.176010099937E+01  0.187539090035E+01
  0.199815921649E+01  0.212888102822E+01  0.226806022025E+01  0.241623103634E+01  0.257395969013E+01
  0.274184602984E+01  0.292052525333E+01  0.311066966921E+01  0.331299049811E+01  0.352823970692E+01
  0.375721186701E+01  0.400074602554E+01  0.425972757649E+01  0.453509011560E+01  0.482781726034E+01
  0.513894441267E+01  0.546956043835E+01  0.582080923232E+01  0.619389113454E+01  0.659006415523E+01
  0.701064496201E+01  0.745700957431E+01  0.793059370276E+01  0.843289266206E+01  0.896546077624E+01
  0.952991018423E+01  0.101279089416E+02  0.107611783013E+02  0.114314890407E+02  0.121406566886E+02
  0.128905354860E+02  0.136830108979E+02  0.145199904723E+02  0.154033928238E+02  0.163351344930E+02
  0.173171144150E+02  0.183511957024E+02  0.194391844278E+02  0.205828050661E+02  0.217836722345E+02
  0.230432583507E+02  0.243628568107E+02  0.257435402779E+02  0.271861136697E+02  0.286910614330E+02
  0.302584887148E+02  0.318880560667E+02  0.335789073712E+02  0.353295907531E+02  0.371379723406E+02
  0.390011428790E+02  0.409153173821E+02  0.428757282348E+02  0.448765124501E+02  0.469105941413E+02
  0.489695637078E+02  0.510435557536E+02  0.531211283845E+02  0.551891472565E+02  0.572326785979E+02
  0.592348963880E+02  0.611770099627E+02  0.630382195112E+02  0.647957082205E+02  0.664246811809E+02
  0.678984625443E+02  0.691886637588E+02  0.702654368882E+02  0.710978279474E+02  0.716542456609E+02
  0.719030608812E+02  0.718133507997E+02  0.713557997361E+02  0.705037642928E+02  0.692345045682E+02
  0.675305744265E+02  0.653813519863E+02  0.627846759699E+02  0.597485338623E+02  0.562927236006E+02
  0.524503816116E+02  0.482692367090E+02  0.438124124584E+02  0.391585617749E+02  0.344010794652E+02
  0.296461053294E+02  0.250090082285E+02  0.206090382051E+02  0.165618596535E+02  0.129697463457E+02
  0.990934360256E+01  0.741710011147E+01  0.547277804980E+01  0.399336806940E+01  0.288141935333E+01
  0.205542346625E+01  0.144912656190E+01  0.100947186600E+01  0.694589320392E+00  0.471912657562E+00
  0.316475003521E+00  0.209410067320E+00  0.136667181439E+00  0.879347224892E-01  0.557571249186E-01
  0.348251039674E-01  0.214160343879E-01  0.129609572814E-01  0.771573552576E-02  0.451589780349E-02
  0.259725299963E-02  0.146708781861E-02  0.813445016367E-03  0.442464035886E-03  0.235961178621E-03
  0.123292795441E-03  0.630778717752E-04  0.315756041666E-04  0.154539765925E-04  0.738936952143E-05
  0.344908930256E-05  0.157025625449E-05  0.696680399585E-06  0.300961758788E-06
 local pseudopotential core
 -0.306413984192E+03 -0.306414282337E+03 -0.306414571086E+03 -0.306414850736E+03 -0.306415121572E+03
 -0.306415383872E+03 -0.306415637905E+03 -0.306415883929E+03 -0.306416122196E+03 -0.306416352952E+03
 -0.306416576431E+03 -0.306416792862E+03 -0.306417002466E+03 -0.306417205458E+03 -0.306417402046E+03
 -0.306417592429E+03 -0.306417776803E+03 -0.306417955356E+03 -0.306418128270E+03 -0.306418295722E+03
 -0.306418457883E+03 -0.306418614919E+03 -0.306418766989E+03 -0.306418914248E+03 -0.306419056847E+03
 -0.306419194932E+03 -0.306419328641E+03 -0.306419458113E+03 -0.306419583477E+03 -0.306419704863E+03
 -0.306419822392E+03 -0.306419936185E+03 -0.306420046356E+03 -0.306420153018E+03 -0.306420256276E+03
 -0.306420356238E+03 -0.306420453003E+03 -0.306420546668E+03 -0.306420637328E+03 -0.306420725074E+03
 -0.306420809994E+03 -0.306420892172E+03 -0.306420971690E+03 -0.306421048628E+03 -0.306421123062E+03
 -0.306421195065E+03 -0.306421264707E+03 -0.306421332058E+03 -0.306421397183E+03 -0.306421460145E+03
 -0.306421521004E+03 -0.306421579820E+03 -0.306421636648E+03 -0.306421691541E+03 -0.306421744552E+03
 -0.306421795728E+03 -0.306421845118E+03 -0.306421892765E+03 -0.306421938713E+03 -0.306421983001E+03
 -0.306422025668E+03 -0.306422066750E+03 -0.306422106281E+03 -0.306422144293E+03 -0.306422180815E+03
 -0.306422215876E+03 -0.306422249499E+03 -0.306422281710E+03 -0.306422312529E+03 -0.306422341974E+03
 -0.306422370062E+03 -0.306422396809E+03 -0.306422422225E+03 -0.306422446321E+03 -0.306422469103E+03
 -0.306422490576E+03 -0.306422510743E+03 -0.306422529603E+03 -0.306422547153E+03 -0.306422563387E+03
 -0.306422578295E+03 -0.306422591865E+03 -0.306422604083E+03 -0.306422614930E+03 -0.306422624383E+03
 -0.306422632418E+03 -0.306422639004E+03 -0.306422644109E+03 -0.306422647694E+03 -0.306422649719E+03
 -0.306422650135E+03 -0.306422648893E+03 -0.306422645935E+03 -0.306422641199E+03 -0.306422634618E+03
 -0.306422626118E+03 -0.306422615619E+03 -0.306422603034E+03 -0.306422588269E+03 -0.306422571223E+03
 -0.306422551786E+03 -0.306422529839E+03 -0.306422505255E+03 -0.306422477897E+03 -0.306422447619E+03
 -0.306422414262E+03 -0.306422377657E+03 -0.306422337622E+03 -0.306422293962E+03 -0.306422246468E+03
 -0.306422194917E+03 -0.306422139069E+03 -0.306422078669E+03 -0.306422013442E+03 -0.306421943097E+03
 -0.306421867320E+03 -0.306421785777E+03 -0.306421698110E+03 -0.306421603939E+03 -0.306421502855E+03
 -0.306421394424E+03 -0.306421278180E+03 -0.306421153628E+03 -0.306421020239E+03 -0.306420877446E+03
 -0.306420724649E+03 -0.306420561202E+03 -0.306420386420E+03 -0.306420199570E+03 -0.306419999871E+03
 -0.306419786489E+03 -0.306419558536E+03 -0.306419315063E+03 -0.306419055058E+03 -0.306418777444E+03
 -0.306418481069E+03 -0.306418164707E+03 -0.306417827049E+03 -0.306417466700E+03 -0.306417082173E+03
 -0.306416671881E+03 -0.306416234131E+03 -0.306415767121E+03 -0.306415268927E+03 -0.306414737497E+03
 -0.306414170647E+03 -0.306413566043E+03 -0.306412921200E+03 -0.306412233467E+03 -0.306411500020E+03
 -0.306410717845E+03 -0.306409883730E+03 -0.306408994250E+03 -0.306408045754E+03 -0.306407034350E+03
 -0.306405955887E+03 -0.306404805942E+03 -0.306403579796E+03 -0.306402272421E+03 -0.306400878455E+03
 -0.306399392184E+03 -0.306397807513E+03 -0.306396117945E+03 -0.306394316557E+03 -0.306392395963E+03
 -0.306390348293E+03 -0.306388165155E+03 -0.306385837604E+03 -0.306383356104E+03 -0.306380710487E+03
 -0.306377889915E+03 -0.306374882835E+03 -0.306371676928E+03 -0.306368259064E+03 -0.306364615245E+03
 -0.306360730549E+03 -0.306356589069E+03 -0.306352173847E+03 -0.306347466805E+03 -0.306342448673E+03
 -0.306337098908E+03 -0.306331395613E+03 -0.306325315445E+03 -0.306318833519E+03 -0.306311923311E+03
 -0.306304556546E+03 -0.306296703084E+03 -0.306288330796E+03 -0.306279405439E+03 -0.306269890506E+03
 -0.306259747090E+03 -0.306248933714E+03 -0.306237406172E+03 -0.306225117344E+03 -0.306212017007E+03
 -0.306198051631E+03 -0.306183164161E+03 -0.306167293788E+03 -0.306150375699E+03 -0.306132340822E+03
 -0.306113115539E+03 -0.306092621394E+03 -0.306070774777E+03 -0.306047486581E+03 -0.306022661852E+03
 -0.305996199403E+03 -0.305967991406E+03 -0.305937922964E+03 -0.305905871649E+03 -0.305871707011E+03
 -0.305835290063E+03 -0.305796472721E+03 -0.305755097218E+03 -0.305710995479E+03 -0.305663988453E+03
 -0.305613885407E+03 -0.305560483173E+03 -0.305503565348E+03 -0.305442901448E+03 -0.305378246001E+03
 -0.305309337593E+03 -0.305235897849E+03 -0.305157630354E+03 -0.305074219507E+03 -0.304985329304E+03
 -0.304890602050E+03 -0.304789656990E+03 -0.304682088860E+03 -0.304567466351E+03 -0.304445330477E+03
 -0.304315192857E+03 -0.304176533885E+03 -0.304028800795E+03 -0.303871405622E+03 -0.303703723035E+03
 -0.303525088049E+03 -0.303334793608E+03 -0.303132088032E+03 -0.302916172312E+03 -0.302686197266E+03
 -0.302441260526E+03 -0.302180403364E+03 -0.301902607342E+03 -0.301606790775E+03 -0.301291805010E+03
 -0.300956430496E+03 -0.300599372641E+03 -0.300219257453E+03 -0.299814626942E+03 -0.299383934278E+03
 -0.298925538690E+03 -0.298437700097E+03 -0.297918573447E+03 -0.297366202766E+03 -0.296778514886E+03
 -0.296153312852E+03 -0.295488268976E+03 -0.294780917544E+03 -0.294028647148E+03 -0.293228692639E+03
 -0.292378126695E+03 -0.291473850991E+03 -0.290512586991E+03 -0.289490866360E+03 -0.288405021025E+03
 -0.287251172917E+03 -0.286025223468E+03 -0.284722842911E+03 -0.283339459522E+03 -0.281870248930E+03
 -0.280310123681E+03 -0.278653723319E+03 -0.276895405272E+03 -0.275029236978E+03 -0.273048989752E+03
 -0.270948135105E+03 -0.268719844400E+03 -0.266356993068E+03 -0.263852170982E+03 -0.261197701153E+03
 -0.258385669689E+03 -0.255407970904E+03 -0.252256372801E+03 -0.248922609711E+03 -0.245398510806E+03
 -0.241676175233E+03 -0.237748206669E+03 -0.233608021580E+03 -0.229250245773E+03 -0.224671212061E+03
 -0.219869566820E+03 -0.214846983837E+03 -0.209608968948E+03 -0.204165717562E+03 -0.198532958296E+03
 -0.192732679304E+03 -0.186793592357E+03 -0.180751157901E+03 -0.174647012623E+03 -0.168527783505E+03
 -0.162443594346E+03 -0.156446919181E+03 -0.150592184924E+03 -0.144934800102E+03 -0.139525756107E+03
 -0.134400188710E+03 -0.129593310344E+03 -0.125523894783E+03 -0.121985061014E+03 -0.118964543093E+03
 -0.115211464052E+03 -0.111580182668E+03 -0.108064175228E+03 -0.104659540110E+03 -0.101362572726E+03
 -0.981697427812E+02 -0.950776714538E+02 -0.920831167882E+02 -0.891829604126E+02 -0.863741980819E+02
 -0.836539301175E+02 -0.810193555745E+02 -0.784677666511E+02 -0.759965440968E+02 -0.736031532432E+02
 -0.712851406810E+02 -0.690401311156E+02 -0.668658246706E+02 -0.647599941923E+02 -0.627204830008E+02
 -0.607452024614E+02 -0.588321297283E+02 -0.569793058072E+02 -0.551848333781E+02 -0.534468748730E+02
 -0.517636505851E+02 -0.501334368225E+02 -0.485545641536E+02 -0.470254156946E+02
 pspotential valence only
 -0.206421250907E+03 -0.206421549069E+03 -0.206421837837E+03 -0.206422117507E+03 -0.206422388364E+03
 -0.206422650687E+03 -0.206422904744E+03 -0.206423150793E+03 -0.206423389089E+03 -0.206423619874E+03
 -0.206423843384E+03 -0.206424059848E+03 -0.206424269488E+03 -0.206424472518E+03 -0.206424669146E+03
 -0.206424859572E+03 -0.206425043992E+03 -0.206425222593E+03 -0.206425395560E+03 -0.206425563068E+03
 -0.206425725288E+03 -0.206425882386E+03 -0.206426034524E+03 -0.206426181855E+03 -0.206426324531E+03
 -0.206426462697E+03 -0.206426596493E+03 -0.206426726057E+03 -0.206426851521E+03 -0.206426973012E+03
 -0.206427090654E+03 -0.206427204566E+03 -0.206427314865E+03 -0.206427421663E+03 -0.206427525067E+03
 -0.206427625183E+03 -0.206427722113E+03 -0.206427815954E+03 -0.206427906802E+03 -0.206427994748E+03
 -0.206428079880E+03 -0.206428162286E+03 -0.206428242046E+03 -0.206428319243E+03 -0.206428393952E+03
 -0.206428466248E+03 -0.206428536203E+03 -0.206428603888E+03 -0.206428669368E+03 -0.206428732709E+03
 -0.206428793973E+03 -0.206428853220E+03 -0.206428910507E+03 -0.206428965890E+03 -0.206429019422E+03
 -0.206429071156E+03 -0.206429121139E+03 -0.206429169419E+03 -0.206429216041E+03 -0.206429261048E+03
 -0.206429304482E+03 -0.206429346381E+03 -0.206429386783E+03 -0.206429425724E+03 -0.206429463236E+03
 -0.206429499352E+03 -0.206429534102E+03 -0.206429567512E+03 -0.206429599610E+03 -0.206429630419E+03
 -0.206429659961E+03 -0.206429688257E+03 -0.206429715326E+03 -0.206429741183E+03 -0.206429765843E+03
 -0.206429789319E+03 -0.206429811620E+03 -0.206429832755E+03 -0.206429852731E+03 -0.206429871551E+03
 -0.206429889216E+03 -0.206429905726E+03 -0.206429921077E+03 -0.206429935264E+03 -0.206429948279E+03
 -0.206429960111E+03 -0.206429970745E+03 -0.206429980165E+03 -0.206429988351E+03 -0.206429995280E+03
 -0.206430000925E+03 -0.206430005257E+03 -0.206430008242E+03 -0.206430009841E+03 -0.206430010015E+03
 -0.206430008715E+03 -0.206430005893E+03 -0.206430001492E+03 -0.206429995452E+03 -0.206429987707E+03
 -0.206429978186E+03 -0.206429966810E+03 -0.206429953497E+03 -0.206429938155E+03 -0.206429920686E+03
 -0.206429900985E+03 -0.206429878938E+03 -0.206429854423E+03 -0.206429827310E+03 -0.206429797456E+03
 -0.206429764710E+03 -0.206429728911E+03 -0.206429689885E+03 -0.206429647445E+03 -0.206429601393E+03
 -0.206429551514E+03 -0.206429497581E+03 -0.206429439349E+03 -0.206429376557E+03 -0.206429308928E+03
 -0.206429236162E+03 -0.206429157940E+03 -0.206429073924E+03 -0.206428983749E+03 -0.206428887027E+03
 -0.206428783345E+03 -0.206428672260E+03 -0.206428553301E+03 -0.206428425963E+03 -0.206428289710E+03
 -0.206428143967E+03 -0.206427988123E+03 -0.206427821525E+03 -0.206427643477E+03 -0.206427453236E+03
 -0.206427250009E+03 -0.206427032951E+03 -0.206426801161E+03 -0.206426553677E+03 -0.206426289475E+03
 -0.206426007460E+03 -0.206425706467E+03 -0.206425385251E+03 -0.206425042488E+03 -0.206424676764E+03
 -0.206424286569E+03 -0.206423870298E+03 -0.206423426236E+03 -0.206422952556E+03 -0.206422447308E+03
 -0.206421908415E+03 -0.206421333663E+03 -0.206420720689E+03 -0.206420066975E+03 -0.206419369837E+03
 -0.206418626413E+03 -0.206417833651E+03 -0.206416988298E+03 -0.206416086886E+03 -0.206415125717E+03
 -0.206414100850E+03 -0.206413008082E+03 -0.206411842933E+03 -0.206410600627E+03 -0.206409276073E+03
 -0.206407863841E+03 -0.206406358147E+03 -0.206404752821E+03 -0.206403041287E+03 -0.206401216535E+03
 -0.206399271093E+03 -0.206397196993E+03 -0.206394985745E+03 -0.206392628296E+03 -0.206390114996E+03
 -0.206387435558E+03 -0.206384579018E+03 -0.206381533688E+03 -0.206378287109E+03 -0.206374826000E+03
 -0.206371136207E+03 -0.206367202640E+03 -0.206363009216E+03 -0.206358538794E+03 -0.206353773100E+03
 -0.206348692662E+03 -0.206343276721E+03 -0.206337503156E+03 -0.206331348386E+03 -0.206324787284E+03
 -0.206317793066E+03 -0.206310337191E+03 -0.206302389240E+03 -0.206293916799E+03 -0.206284885322E+03
 -0.206275257999E+03 -0.206264995605E+03 -0.206254056341E+03 -0.206242395671E+03 -0.206229966143E+03
 -0.206216717196E+03 -0.206202594966E+03 -0.206187542066E+03 -0.206171497359E+03 -0.206154395721E+03
 -0.206136167779E+03 -0.206116739642E+03 -0.206096032607E+03 -0.206073962855E+03 -0.206050441121E+03
 -0.206025372349E+03 -0.205998655322E+03 -0.205970182272E+03 -0.205939838467E+03 -0.205907501769E+03
 -0.205873042169E+03 -0.205836321296E+03 -0.205797191891E+03 -0.205755497257E+03 -0.205711070674E+03
 -0.205663734778E+03 -0.205613300910E+03 -0.205559568422E+03 -0.205502323952E+03 -0.205441340654E+03
 -0.205376377385E+03 -0.205307177851E+03 -0.205233469714E+03 -0.205154963637E+03 -0.205071352298E+03
 -0.204982309343E+03 -0.204887488294E+03 -0.204786521400E+03 -0.204679018442E+03 -0.204564565475E+03
 -0.204442723523E+03 -0.204313027213E+03 -0.204174983356E+03 -0.204028069473E+03 -0.203871732263E+03
 -0.203705386019E+03 -0.203528410993E+03 -0.203340151704E+03 -0.203139915204E+03 -0.202926969292E+03
 -0.202700540693E+03 -0.202459813193E+03 -0.202203925748E+03 -0.201931970563E+03 -0.201642991158E+03
 -0.201335980421E+03 -0.201009878667E+03 -0.200663571708E+03 -0.200295888952E+03 -0.199905601546E+03
 -0.199491420589E+03 -0.199051995419E+03 -0.198585912023E+03 -0.198091691589E+03 -0.197567789231E+03
 -0.197012592946E+03 -0.196424422835E+03 -0.195801530667E+03 -0.195142099840E+03 -0.194444245826E+03
 -0.193706017214E+03 -0.192925397432E+03 -0.192100307310E+03 -0.191228608614E+03 -0.190308108736E+03
 -0.189336566709E+03 -0.188311700787E+03 -0.187231197814E+03 -0.186092724629E+03 -0.184893941830E+03
 -0.183632520188E+03 -0.182306160113E+03 -0.180912614613E+03 -0.179449716315E+03 -0.177915409298E+03
 -0.176307786717E+03 -0.174625135574E+03 -0.172865990457E+03 -0.171029198616E+03 -0.169113999376E+03
 -0.167120121377E+03 -0.165047901289E+03 -0.162898426949E+03 -0.160673705817E+03 -0.158376855369E+03
 -0.156012304810E+03 -0.153585986656E+03 -0.151105482019E+03 -0.148580065157E+03 -0.146020571781E+03
 -0.143438993742E+03 -0.140847685654E+03 -0.138258073482E+03 -0.135678823100E+03 -0.133113630189E+03
 -0.130559180305E+03 -0.128004231653E+03 -0.125430542869E+03 -0.122814601304E+03 -0.120126444047E+03
 -0.117323868080E+03 -0.114375027777E+03 -0.111648849941E+03 -0.108912008820E+03 -0.106153588922E+03
 -0.103427629212E+03 -0.100736195759E+03 -0.980812515204E+02 -0.954663972343E+02 -0.928944931615E+02
 -0.903676842947E+02 -0.878874464522E+02 -0.854546539891E+02 -0.830696853857E+02 -0.807325318677E+02
 -0.784429542966E+02 -0.762006245770E+02 -0.740052655929E+02 -0.718567657258E+02 -0.697552568301E+02
 -0.677011493134E+02 -0.656951229342E+02 -0.637380763610E+02 -0.618310416480E+02 -0.599750722019E+02
 -0.581711149425E+02 -0.564198797988E+02 -0.547217216909E+02 -0.530765507020E+02 -0.514837838418E+02
 -0.499423461043E+02 -0.484507202785E+02 -0.470070364042E+02 -0.456091854492E+02
 core charge-density (pseudized)
  0.235343072344E-07  0.250897460361E-07  0.267479875171E-07  0.285158261527E-07  0.304005054814E-07
  0.324097477846E-07  0.345517857274E-07  0.368353960919E-07  0.392699357383E-07  0.418653799442E-07
  0.446323632773E-07  0.475822231690E-07  0.507270463688E-07  0.540797184683E-07  0.576539766985E-07
  0.614644662171E-07  0.655268001148E-07  0.698576233889E-07  0.744746811442E-07  0.793968913018E-07
  0.846444221132E-07  0.902387747978E-07  0.962028716415E-07  0.102561149919E-06  0.109339662021E-06
  0.116566182206E-06  0.124270320395E-06  0.132483643502E-06  0.141239804772E-06  0.150574681672E-06
  0.160526522897E-06  0.171136105088E-06  0.182446899911E-06  0.194505252175E-06  0.207360569729E-06
  0.221065525903E-06  0.235676275329E-06  0.251252684032E-06  0.267858574723E-06  0.285561988305E-06
  0.304435462664E-06  0.324556329882E-06  0.346007033101E-06  0.368875464320E-06  0.393255324524E-06
  0.419246507613E-06  0.446955509707E-06  0.476495865497E-06  0.507988613444E-06  0.541562791717E-06
  0.577355966913E-06  0.615514797717E-06  0.656195635819E-06  0.699565166544E-06  0.745801091826E-06
  0.795092858317E-06  0.847642433618E-06  0.903665133818E-06  0.963390505719E-06  0.102706326737E-05
  0.109494431079E-05  0.116731177087E-05  0.124446216508E-05  0.132671160833E-05  0.141439710825E-05
  0.150787794599E-05  0.160753714834E-05  0.171378305714E-05  0.182705100233E-05  0.194780508571E-05
  0.207654008246E-05  0.221378346842E-05  0.236009758133E-05  0.251608192489E-05  0.268237562508E-05
  0.285966004892E-05  0.304866159615E-05  0.325015467554E-05  0.346496487786E-05  0.369397235850E-05
  0.393811544374E-05  0.419839447529E-05  0.447587590893E-05  0.477169668400E-05  0.508706888173E-05
  0.542328469134E-05  0.578172170441E-05  0.616384855914E-05  0.657123095754E-05  0.700553808041E-05
  0.746854942613E-05  0.796216210153E-05  0.848839859447E-05  0.904941506013E-05  0.964751015492E-05
  0.102851344541E-04  0.109649004919E-04  0.116895934649E-04  0.124621826429E-04  0.132858335338E-04
  0.141639208523E-04  0.151000423457E-04  0.160980335333E-04  0.171619834194E-04  0.182962512452E-04
  0.195054843473E-04  0.207946371961E-04  0.221689916921E-04  0.236341788042E-04  0.251962016361E-04
  0.268614600183E-04  0.286367767239E-04  0.305294254166E-04  0.325471604458E-04  0.346982486094E-04
  0.369915030150E-04  0.394363191788E-04  0.420427135081E-04  0.448213643271E-04  0.477836556111E-04
  0.509417236116E-04  0.543085065587E-04  0.578977976481E-04  0.617243015269E-04  0.658036945091E-04
  0.701526887693E-04  0.747891007738E-04  0.797319242313E-04  0.850014078600E-04  0.906191382888E-04
  0.966081284320E-04  0.102992911698E-03  0.109799642414E-03  0.117056202886E-03  0.124792317513E-03
  0.133039674444E-03  0.141832055254E-03  0.151205473175E-03  0.161198320455E-03  0.171851525426E-03
  0.183208719938E-03  0.195316417828E-03  0.208224205163E-03  0.221984943020E-03  0.236654983629E-03
  0.252294400763E-03  0.268967235311E-03  0.286741757013E-03  0.305690743452E-03  0.325891777396E-03
  0.347427563728E-03  0.370386267223E-03  0.394861872546E-03  0.420954567933E-03  0.448771154095E-03
  0.478425479989E-03  0.510038907231E-03  0.543740805001E-03  0.579669077433E-03  0.617970725617E-03
  0.658802446455E-03  0.702331270771E-03  0.748735243225E-03  0.798204146749E-03  0.850940274379E-03
  0.907159251561E-03  0.967090912185E-03  0.103098023182E-02  0.109908832185E-02  0.117169348834E-02
  0.124909235998E-02  0.133160108929E-02  0.141955663196E-02  0.151331810918E-02  0.161326825838E-02
  0.171981497782E-02  0.183339297107E-02  0.195446549773E-02  0.208352623690E-02  0.222110127066E-02
  0.236775119487E-02  0.252407336536E-02  0.269070428776E-02  0.286832215992E-02  0.305764957616E-02
  0.325945640333E-02  0.347456283899E-02  0.370384266271E-02  0.394822669201E-02  0.420870645513E-02
  0.448633809330E-02  0.478224650591E-02  0.509762975270E-02  0.543376372741E-02  0.579200711855E-02
  0.617380667287E-02  0.658070277862E-02  0.701433538544E-02  0.747645027916E-02  0.796890572977E-02
  0.849367953175E-02  0.905287645629E-02  0.964873613542E-02  0.102836413984E-01  0.109601270809E-01
  0.116808893281E-01  0.124487954119E-01  0.132668940828E-01  0.141384264769E-01  0.150668375970E-01
  0.160557883859E-01  0.171091684096E-01  0.182311091644E-01  0.194259980214E-01  0.206984928179E-01
  0.220535371024E-01  0.234963760343E-01  0.250325729354E-01  0.266680264842E-01  0.284089885340E-01
  0.302620825305E-01  0.322343224925E-01  0.343331325053E-01  0.365663666673E-01  0.389423294072E-01
  0.414697960774E-01  0.441580337009E-01  0.470168217287E-01  0.500564726330E-01  0.532878521300E-01
  0.567223987888E-01  0.603721427388E-01  0.642497231415E-01  0.683684040373E-01  0.727420881148E-01
  0.773853278837E-01  0.823133336518E-01  0.875419776208E-01  0.930877933171E-01  0.989679694686E-01
  0.105200337314E+00  0.111803350200E+00  0.118796054185E+00  0.126198048184E+00  0.134029432051E+00
  0.142310740762E+00  0.151062862711E+00  0.160306939856E+00  0.170064247261E+00  0.180356049334E+00
  0.191203429769E+00  0.202627092000E+00  0.214647126659E+00  0.227282742308E+00  0.240551955463E+00
  0.254471235690E+00  0.269055101400E+00  0.284315661820E+00  0.300262100550E+00  0.316900096186E+00
  0.334231175631E+00  0.352251996064E+00  0.370953552071E+00  0.390320305252E+00  0.410329234725E+00
  0.430948808443E+00  0.452137877232E+00  0.473844495931E+00  0.496004679204E+00  0.518541103477E+00
  0.541361771235E+00  0.564358659634E+00  0.587406382214E+00  0.610360900487E+00  0.633058331469E+00
  0.655313907782E+00  0.676921158885E+00  0.697651395131E+00  0.717253590552E+00  0.735454775278E+00
  0.751961063693E+00  0.766459459208E+00  0.778620589772E+00  0.788102538609E+00  0.794555940275E+00
  0.797630510692E+00  0.796983168307E+00  0.792287878411E+00  0.783247309609E+00  0.769606325510E+00
  0.751167240366E+00  0.727806638649E+00  0.699493389455E+00  0.666307271723E+00  0.628457361325E+00
  0.586299014643E+00  0.540347917736E+00  0.491289264395E+00  0.439979697870E+00  0.387439229307E+00
  0.334829976129E+00  0.283418309968E+00  0.234516953683E+00  0.189403832996E+00  0.149215209288E+00
  0.114811958122E+00  0.866199901037E-01  0.644491508795E-01  0.474255276823E-01  0.345106945452E-01
  0.248266048304E-01  0.176510731151E-01  0.123986879363E-01  0.860170784322E-02  0.589175341313E-02
  0.398286193588E-02  0.265625795013E-02  0.174701590623E-02  0.113265170099E-02  0.723575980452E-03
  0.455270391083E-03  0.282003904475E-03  0.171884801186E-03  0.103039871090E-03  0.607210624791E-04
  0.351569734512E-04  0.199886623436E-04  0.111534077406E-04  0.610412111639E-05  0.327460260970E-05
  0.172079772808E-05  0.885197529105E-06  0.445431295484E-06  0.219093952349E-06  0.105258357264E-06
  0.493532495591E-07  0.225659662263E-07  0.100532688349E-07  0.436016044862E-08
 pseudo wavefunction
  0.161553617156E-11  0.177831608310E-11  0.195749754600E-11  0.215473316520E-11  0.237184206055E-11
  0.261082664470E-11  0.287389109156E-11  0.316346166548E-11  0.348220909896E-11  0.383307322498E-11
  0.421929009133E-11  0.464442180694E-11  0.511238939547E-11  0.562750895924E-11  0.619453148698E-11
  0.681868667255E-11  0.750573114886E-11  0.826200158170E-11  0.909447311335E-11  0.100108236948E-10
  0.110195049002E-10  0.121298198763E-10  0.133520091461E-10  0.146973450579E-10  0.161782357515E-10
  0.178083395986E-10  0.196026911759E-10  0.215778399296E-10  0.237520028123E-10  0.261452322998E-10
  0.287796013357E-10  0.316794069128E-10  0.348713941655E-10  0.383850030426E-10  0.422526398338E-10
  0.465099760555E-10  0.511962774520E-10  0.563547661461E-10  0.620330192803E-10  0.682834078239E-10
  0.751635795946E-10  0.827369909484E-10  0.910734920422E-10  0.100249971066E-09  0.110351063391E-09
  0.121469932163E-09  0.133709127557E-09  0.147181532602E-09  0.162011404309E-09  0.178335519705E-09
  0.196304437330E-09  0.216083885858E-09  0.237856292613E-09  0.261822466116E-09  0.288203448151E-09
  0.317242552449E-09  0.349207608781E-09  0.384393433174E-09  0.423124547015E-09  0.465758170125E-09
  0.512687515424E-09  0.564345415553E-09  0.621208314910E-09  0.683800663921E-09  0.752699756076E-09
  0.828541052328E-09  0.912024041979E-09  0.100391869410E-08  0.110507255900E-08  0.121641858517E-08
  0.133898372395E-08  0.147389840110E-08  0.162240694277E-08  0.178587905193E-08  0.196582244118E-08
  0.216389673838E-08  0.238192879348E-08  0.262192952751E-08  0.288611247933E-08  0.317691422109E-08
  0.349701683075E-08  0.384937262879E-08  0.423723140744E-08  0.466417040342E-08  0.513412729068E-08
  0.565143649739E-08  0.622086918217E-08  0.684767723821E-08  0.753764173112E-08  0.829712621727E-08
  0.913313543432E-08  0.100533799052E-07  0.110663470515E-07  0.121813794717E-07  0.134087611071E-07
  0.147598120886E-07  0.162469931409E-07  0.178840205048E-07  0.196859924402E-07  0.216695284735E-07
  0.238529226757E-07  0.262563123842E-07  0.289018639233E-07  0.318139770378E-07  0.350195099240E-07
  0.385480269329E-07  0.424320712311E-07  0.467074649328E-07  0.514136394712E-07  0.565939992555E-07
  0.622963219671E-07  0.685731991866E-07  0.754825214144E-07  0.830880119569E-07  0.914598146026E-07
  0.100675140506E-06  0.110818980243E-06  0.121984887608E-06  0.134275842374E-06  0.147805199970E-06
  0.162697736845E-06  0.179090801131E-06  0.197135579246E-06  0.216998490086E-06  0.238862719675E-06
  0.262929910420E-06  0.289422020533E-06  0.318583370780E-06  0.350682897403E-06  0.386016631998E-06
  0.424910431197E-06  0.467722981321E-06  0.514849105694E-06  0.566723405096E-06  0.623824264910E-06
  0.686678265883E-06  0.755865039160E-06  0.832022610306E-06  0.915853281567E-06  0.100813010657E-05
  0.110970401708E-05  0.122151166752E-05  0.134458406943E-05  0.148005609546E-05  0.162917694042E-05
  0.179332163559E-05  0.197400372255E-05  0.217288920298E-05  0.239181189292E-05  0.263279032286E-05
  0.289804633915E-05  0.319002557786E-05  0.351141999948E-05  0.386519269182E-05  0.425460516900E-05
  0.468324741787E-05  0.515507096774E-05  0.567442528769E-05  0.624609784567E-05  0.687535819760E-05
  0.756800651128E-05  0.833042697075E-05  0.916964655126E-05  0.100933997042E-04  0.111101995456E-04
  0.122294162002E-04  0.134613630208E-04  0.148173914708E-04  0.163099955411E-04  0.179529266556E-04
  0.197613201175E-04  0.217518342529E-04  0.239428035223E-04  0.263544070010E-04  0.290088537631E-04
  0.319305868637E-04  0.351465077761E-04  0.386862233295E-04  0.425823173947E-04  0.468706497880E-04
  0.515906851080E-04  0.567858544906E-04  0.625039535613E-04  0.687975801875E-04  0.757246159906E-04
  0.833487559658E-04  0.917400909875E-04  0.100975748445E-03  0.111140596766E-03  0.122328020162E-03
  0.134640770515E-03  0.148191904049E-03  0.163105811122E-03  0.179519348320E-03  0.197583082896E-03
  0.217462660589E-03  0.239340308895E-03  0.263416489041E-03  0.289911711152E-03  0.319068528513E-03
  0.351153728289E-03  0.386460737753E-03  0.425312266807E-03  0.468063209569E-03  0.515103829867E-03
  0.566863257808E-03  0.623813327046E-03  0.686472785094E-03  0.755411911917E-03  0.831257585210E-03
  0.914698834154E-03  0.100649292711E-02  0.110747204265E-02  0.121855057756E-02  0.134073314993E-02
  0.147512336035E-02  0.162293337928E-02  0.178549443431E-02  0.196426827645E-02  0.216085971113E-02
  0.237703028553E-02  0.261471323089E-02  0.287602976492E-02  0.316330686691E-02  0.347909664506E-02
  0.382619742279E-02  0.420767667819E-02  0.462689597741E-02  0.508753804967E-02  0.559363615758E-02
  0.614960592143E-02  0.676027976063E-02  0.743094411776E-02  0.816737963160E-02  0.897590442356E-02
  0.986342065731E-02  0.108374645226E-01  0.119062597812E-01  0.130787749931E-01  0.143647845170E-01
  0.157749333422E-01  0.173208057683E-01  0.190149978905E-01  0.208711937813E-01  0.229042451720E-01
  0.251302543345E-01  0.275666597368E-01  0.302323238940E-01  0.331476226573E-01  0.363345349672E-01
  0.398167318489E-01  0.436196631299E-01  0.477706400207E-01  0.522989113032E-01  0.572357304161E-01
  0.626144102102E-01  0.684703615565E-01  0.748411113305E-01  0.817662945545E-01  0.892876146629E-01
  0.974487649553E-01  0.106295303333E+00  0.115874471366E+00  0.126234947651E+00  0.137426524285E+00
  0.149499694133E+00  0.162505135508E+00  0.176493079809E+00  0.191512546892E+00  0.207610432287E+00
  0.224830430207E+00  0.243211776542E+00  0.262787797040E+00  0.283584247725E+00  0.305617437622E+00
  0.328892128278E+00  0.353399210754E+00  0.379113169009E+00  0.405989349329E+00  0.433961069026E+00
  0.462936614408E+00  0.492796198328E+00  0.523388971630E+00  0.554530210607E+00  0.585998833937E+00
  0.617535436822E+00  0.648841066277E+00  0.679576997753E+00  0.709365807173E+00  0.737794060108E+00
  0.764416956640E+00  0.788765269900E+00  0.810354890738E+00  0.828699231073E+00  0.843324633585E+00
  0.853788774142E+00  0.859701814283E+00  0.860749754299E+00  0.856719046814E+00  0.847521056428E+00
  0.833214403884E+00  0.814022639486E+00  0.790344097123E+00  0.762750261453E+00  0.731968642768E+00
  0.698846139433E+00  0.664289354573E+00  0.629179528695E+00  0.594261870993E+00  0.560011776632E+00
  0.526560985116E+00  0.493974956043E+00  0.462333876763E+00  0.431707020915E+00  0.402153375319E+00
  0.373722199347E+00  0.346453507675E+00  0.320378495568E+00  0.295519824196E+00  0.271892018723E+00
  0.249501697407E+00  0.228347896858E+00  0.208422430467E+00  0.189710320284E+00  0.172190316586E+00
  0.155835506636E+00  0.140614001307E+00  0.126489677182E+00  0.113422943944E+00  0.101371503035E+00
  0.902910638973E-01  0.801359883859E-01  0.708598417041E-01  0.624158384932E-01  0.547571843044E-01
  0.478373238162E-01  0.416101160414E-01  0.360299618652E-01  0.310519098265E-01
 ae wavefunction
  0.485363351167E-07  0.528687646235E-07  0.575665640257E-07  0.626622972044E-07  0.681913037034E-07
  0.741919467800E-07  0.807058829011E-07  0.877783546075E-07  0.954585088420E-07  0.103799743032E-06
  0.112860081415E-06  0.122702584314E-06  0.133395793318E-06  0.145014215583E-06  0.157638850748E-06
  0.171357764287E-06  0.186266711453E-06  0.202469816333E-06  0.220080310966E-06  0.239221339890E-06
  0.260026835974E-06  0.282642473952E-06  0.307226708589E-06  0.333951905115E-06  0.363005570155E-06
  0.394591692232E-06  0.428932201658E-06  0.466268560556E-06  0.506863494700E-06  0.551002879975E-06
  0.598997797329E-06  0.651186771441E-06  0.707938209626E-06  0.769653059083E-06  0.836767702120E-06
  0.909757110923E-06  0.989138285227E-06  0.107547399853E-05  0.116937688067E-05  0.127151386727E-05
  0.138261104918E-05  0.150345895811E-05  0.163491832808E-05  0.177792637559E-05  0.193350364573E-05
  0.210276147529E-05  0.228691012901E-05  0.248726766993E-05  0.270526963034E-05  0.294247955608E-05
  0.320060050331E-05  0.348148757416E-05  0.378716158553E-05  0.411982397383E-05  0.448187304757E-05
  0.487592171033E-05  0.530481678702E-05  0.577166009908E-05  0.627983144668E-05  0.683301367097E-05
  0.743521998428E-05  0.809082377367E-05  0.880459110115E-05  0.958171614440E-05  0.104278598431E-04
  0.113491920402E-04  0.123524374327E-04  0.134449256747E-04  0.146346460066E-04  0.159303068159E-04
  0.173414005720E-04  0.188782746162E-04  0.205522083308E-04  0.223754972552E-04  0.243615447692E-04
  0.265249620148E-04  0.288816767899E-04  0.314490522051E-04  0.342460159693E-04  0.372932012375E-04
  0.406131000412E-04  0.442302303998E-04  0.481713183135E-04  0.524654959315E-04  0.571445173018E-04
  0.622429932262E-04  0.677986468669E-04  0.738525918899E-04  0.804496350747E-04  0.876386054765E-04
  0.954727123947E-04  0.104009934583E-03  0.113313443329E-03  0.123452062233E-03  0.134500766748E-03
  0.146541226766E-03  0.159662395785E-03  0.173961150486E-03  0.189542984782E-03  0.206522762759E-03
  0.225025535209E-03  0.245187424794E-03  0.267156585276E-03  0.291094240558E-03  0.317175809730E-03
  0.345592124701E-03  0.376550747426E-03  0.410277394188E-03  0.447017474871E-03  0.487037755613E-03
  0.530628153748E-03  0.578103674427E-03  0.629806498836E-03  0.686108234432E-03  0.747412338149E-03
  0.814156724029E-03  0.886816567236E-03  0.965907316909E-03  0.105198793074E-02  0.114566434465E-02
  0.124759319118E-02  0.135848578081E-02  0.147911236022E-02  0.161030666222E-02  0.175297076156E-02
  0.190808025129E-02  0.207668975365E-02  0.225993877928E-02  0.245905794808E-02  0.267537558374E-02
  0.291032469330E-02  0.316545034134E-02  0.344241742672E-02  0.374301886745E-02  0.406918419681E-02
  0.442298857026E-02  0.480666217932E-02  0.522260006383E-02  0.567337230900E-02  0.616173460770E-02
  0.669063916156E-02  0.726324588680E-02  0.788293388177E-02  0.855331310316E-02  0.927823618702E-02
  0.100618103378E-01  0.109084091950E-01  0.118226845718E-01  0.128095779423E-01  0.138743315374E-01
  0.150224988858E-01  0.162599546190E-01  0.175929033308E-01  0.190278872602E-01  0.205717925356E-01
  0.222318536918E-01  0.240156561350E-01  0.259311362000E-01  0.279865784036E-01  0.301906094560E-01
  0.325521885476E-01  0.350805933815E-01  0.377854013706E-01  0.406764653737E-01  0.437638833044E-01
  0.470579609164E-01  0.505691670551E-01  0.543080806602E-01  0.582853288113E-01  0.625115151188E-01
  0.669971377666E-01  0.717524965221E-01  0.767875880290E-01  0.821119887090E-01  0.877347246149E-01
  0.936641276117E-01  0.999076773097E-01  0.106471828255E+00  0.113361821990E+00  0.120581483749E+00
  0.128133003722E+00  0.136016703063E+00  0.144230785062E+00  0.152771072180E+00  0.161630730038E+00
  0.170799979748E+00  0.180265800471E+00  0.190011624499E+00  0.200017027672E+00  0.210257418491E+00
  0.220703729829E+00  0.231322117762E+00  0.242073672630E+00  0.252914148064E+00  0.263793714323E+00
  0.274656742852E+00  0.285441629570E+00  0.296080664810E+00  0.306499958260E+00  0.316619427431E+00
  0.326352858105E+00  0.335608044887E+00  0.344287019261E+00  0.352286371720E+00  0.359497673901E+00
  0.365808006915E+00  0.371100603451E+00  0.375255613993E+00  0.378151010459E+00  0.379663642328E+00
  0.379670458940E+00  0.378049905369E+00  0.374683487656E+00  0.369457490194E+00  0.362264820177E+00
  0.353006954804E+00  0.341595971519E+00  0.327956642894E+00  0.312028574007E+00  0.293768354266E+00
  0.273151691000E+00  0.250175489372E+00  0.224859840852E+00  0.197249879999E+00  0.167417466074E+00
  0.135462642697E+00  0.101514825937E+00  0.657336694793E-01  0.283095554778E-01 -0.105363383913E-01
 -0.505524410099E-01 -0.914576981822E-01 -0.132943022084E+00 -0.174673298984E+00 -0.216289955877E+00
 -0.257414055126E+00 -0.297649838895E+00 -0.336588595631E+00 -0.373812711302E+00 -0.408899857990E+00
 -0.441427486900E+00 -0.470978013972E+00 -0.497144979102E+00 -0.519539861707E+00 -0.537798753532E+00
 -0.551588348137E+00 -0.560611250675E+00 -0.564610797499E+00 -0.563375448625E+00 -0.556742656357E+00
 -0.544602045914E+00 -0.526897771837E+00 -0.503629988883E+00 -0.474855445915E+00 -0.440687252021E+00
 -0.401293878062E+00 -0.356897455027E+00 -0.307771422818E+00 -0.254237573925E+00 -0.196662529460E+00
 -0.135453681506E+00 -0.710546372372E-01 -0.394020685912E-02  0.653890117995E-01  0.136412385458E+00
  0.208595251977E+00  0.281395078628E+00  0.354267639710E+00  0.426673043166E+00  0.498081404923E+00
  0.567977991531E+00  0.635867771727E+00  0.701279527634E+00  0.763769861523E+00  0.822927422173E+00
  0.878377427848E+00  0.929786224048E+00  0.976865439378E+00  0.101937535112E+01  0.105712724386E+01
  0.108998469508E+01  0.111786380266E+01  0.114073239943E+01  0.115860832045E+01  0.117155680674E+01
  0.117968715861E+01  0.118314876998E+01  0.118212668796E+01  0.117683684969E+01  0.116752114194E+01
  0.115444241494E+01  0.113787957191E+01  0.111812284068E+01  0.109546930815E+01  0.107021878780E+01
  0.104267007235E+01  0.101311760525E+01  0.981848592968E+00  0.949140564711E+00  0.915259374908E+00
  0.880457633595E+00  0.844973540026E+00  0.809030088577E+00  0.772834609374E+00  0.736578603596E+00
  0.700437828316E+00  0.664572589522E+00  0.629128197608E+00  0.594235546643E+00  0.560011776632E+00
  0.526560985116E+00  0.493974956043E+00  0.462333876763E+00  0.431707020915E+00  0.402153375319E+00
  0.373722199347E+00  0.346453507675E+00  0.320378495568E+00  0.295519824196E+00  0.271892018723E+00
  0.249501697407E+00  0.228347896858E+00  0.208422430467E+00  0.189710320284E+00  0.172190316586E+00
  0.155835506636E+00  0.140614001307E+00  0.126489677182E+00  0.113422943944E+00  0.101371503035E+00
  0.902910638973E-01  0.801359883859E-01  0.708598417041E-01  0.624158384932E-01  0.547571843044E-01
  0.478373238162E-01  0.416101160414E-01  0.360299618652E-01  0.310519098265E-01
 pseudo wavefunction
  0.155756608457E-11  0.171450498447E-11  0.188725690087E-11  0.207741513849E-11  0.228673354193E-11
  0.251714267153E-11  0.277076760907E-11  0.304994755758E-11  0.335725741598E-11  0.369553152760E-11
  0.406788982152E-11  0.447776658796E-11  0.492894215297E-11  0.542557774470E-11  0.597225387276E-11
  0.657401257454E-11  0.723640391842E-11  0.796553719240E-11  0.876813725059E-11  0.965160653706E-11
  0.106240933592E-10  0.116945670400E-10  0.128729006431E-10  0.141699620327E-10  0.155977141086E-10
  0.171693251412E-10  0.188992902232E-10  0.208035649591E-10  0.228997126252E-10  0.252070661564E-10
  0.277469064561E-10  0.305426586711E-10  0.336201082437E-10  0.370076387326E-10  0.407364935971E-10
  0.448410643570E-10  0.493592077892E-10  0.543325950829E-10  0.598070961760E-10  0.658332028176E-10
  0.724664942564E-10  0.797681498525E-10  0.878055133390E-10  0.966527139383E-10  0.106391350061E-09
  0.117111241893E-09  0.128911259816E-09  0.141900236294E-09  0.156197969640E-09  0.171936328930E-09
  0.189260470237E-09  0.208330175414E-09  0.229321325774E-09  0.252427524256E-09  0.277861881035E-09
  0.305858979052E-09  0.336677037586E-09  0.370600293826E-09  0.407941624409E-09  0.449045431098E-09
  0.494290817219E-09  0.544095084151E-09  0.598917580119E-09  0.659263936789E-09  0.725690732729E-09
  0.798810626765E-09  0.879298008555E-09  0.967895218519E-09  0.106541939447E-08  0.117277000812E-08
  0.129093716090E-08  0.142101071576E-08  0.156419034896E-08  0.172179661472E-08  0.189528312473E-08
  0.208624995484E-08  0.229645840257E-08  0.252784723157E-08  0.278255055289E-08  0.306291750782E-08
  0.337153393404E-08  0.371124621480E-08  0.408518753101E-08  0.449680675853E-08  0.494990027704E-08
  0.544864698390E-08  0.599764683594E-08  0.660196327461E-08  0.726716992578E-08  0.799940200489E-08
  0.880541290157E-08  0.969263646547E-08  0.106692555679E-07  0.117442775716E-07  0.129276174043E-07
  0.142301890028E-07  0.156640059704E-07  0.172422923766E-07  0.189796047195E-07  0.208919661781E-07
  0.229970143899E-07  0.253141641188E-07  0.278647863122E-07  0.306724051985E-07  0.337629152445E-07
  0.371648199705E-07  0.409094948277E-07  0.450314765618E-07  0.495687817302E-07  0.545632573111E-07
  0.600609666368E-07  0.661126142115E-07  0.727740133288E-07  0.801066008029E-07  0.881780035595E-07
  0.970626623094E-07  0.106842518058E-06  0.117607767778E-06  0.129457696216E-06  0.142501591504E-06
  0.156859753005E-06  0.172664600708E-06  0.190061896379E-06  0.209212087738E-06  0.230291788053E-06
  0.253495404790E-06  0.279036932332E-06  0.307151925297E-06  0.338099670641E-06  0.372165578574E-06
  0.409663814323E-06  0.450940195000E-06  0.496375378278E-06  0.546388372258E-06  0.601440398884E-06
  0.662039146493E-06  0.728743450707E-06  0.802168446782E-06  0.882991240902E-06  0.971957152651E-06
  0.106988658620E-05  0.117768259348E-05  0.129633919902E-05  0.142695056313E-05  0.157072106780E-05
  0.172897641823E-05  0.190317586217E-05  0.209492563960E-05  0.230599378655E-05  0.253832642933E-05
  0.279406571915E-05  0.307556957212E-05  0.338543339627E-05  0.372651400554E-05  0.410195594054E-05
  0.451522043824E-05  0.497011731694E-05  0.547084006956E-05  0.602200448776E-05  0.662869117186E-05
  0.729649231698E-05  0.803156320498E-05  0.884067887510E-05  0.973129649326E-05  0.107116239923E-04
  0.117906956128E-04  0.129784550368E-04  0.142858468764E-04  0.157249173560E-04  0.173089251087E-04
  0.190524631018E-04  0.209715928076E-04  0.230839918433E-04  0.254091164329E-04  0.279683801709E-04
  0.307853507216E-04  0.338859662465E-04  0.372987735327E-04  0.410551899887E-04  0.451897918935E-04
  0.497406315162E-04  0.547495859867E-04  0.602627410819E-04  0.663308134028E-04  0.730096147652E-04
  0.803605629983E-04  0.884512437627E-04  0.973560284500E-04  0.107156753724E-03  0.117943468808E-03
  0.129815257216E-03  0.142881140288E-03  0.157261070590E-03  0.173087024043E-03  0.190504200477E-03
  0.209672343276E-03  0.230767189763E-03  0.253982065142E-03  0.279529633990E-03  0.307643824668E-03
  0.338581943436E-03  0.372626996692E-03  0.410090241431E-03  0.451313985942E-03  0.496674664795E-03
  0.546586214383E-03  0.601503777710E-03  0.661927769732E-03  0.728408337384E-03  0.801550251492E-03
  0.882018271077E-03  0.970543024136E-03  0.106792745280E-02  0.117505387494E-02  0.129289171859E-02
  0.142250599053E-02  0.156506654506E-02  0.172185822469E-02  0.189429194997E-02  0.208391684156E-02
  0.229243346437E-02  0.252170828954E-02  0.277378947745E-02  0.305092409158E-02  0.335557686055E-02
  0.369045061260E-02  0.405850851450E-02  0.446299825353E-02  0.490747830845E-02  0.539584646152E-02
  0.593237070938E-02  0.652172273549E-02  0.716901410986E-02  0.787983538398E-02  0.866029824779E-02
  0.951708091283E-02  0.104574768783E-01  0.114894472262E-01  0.126216765752E-01  0.138636328004E-01
  0.152256305959E-01  0.167188989171E-01  0.183556522916E-01  0.201491659214E-01  0.221138544241E-01
  0.242653539635E-01  0.266206074050E-01  0.291979519898E-01  0.320172088574E-01  0.350997735452E-01
  0.384687063616E-01  0.421488212540E-01  0.461667714738E-01  0.505511299710E-01  0.553324620237E-01
  0.605433871211E-01  0.662186265650E-01  0.723950326284E-01  0.791115944111E-01  0.864094147524E-01
  0.943316517090E-01  0.102923417172E+00  0.112231624198E+00  0.122304773580E+00  0.133192669066E+00
  0.144946049556E+00  0.157616125487E+00  0.171254005631E+00  0.185909999639E+00  0.201632781028E+00
  0.218468394980E+00  0.236459095481E+00  0.255641997097E+00  0.276047528289E+00  0.297697675833E+00
  0.320604013906E+00  0.344765517019E+00  0.370166163613E+00  0.396772347079E+00  0.424530123689E+00
  0.453362342730E+00  0.483165723426E+00  0.513807966189E+00  0.545125012581E+00  0.576918598827E+00
  0.608954281519E+00  0.640960150245E+00  0.672626478819E+00  0.703606602241E+00  0.733519337172E+00
  0.761953285000E+00  0.788473362614E+00  0.812629889262E+00  0.833970509180E+00  0.852055138420E+00
  0.866473978547E+00  0.876868427238E+00  0.882954424571E+00  0.884547394850E+00  0.881587473123E+00
  0.874163148105E+00  0.862530827391E+00  0.847127174273E+00  0.828570441255E+00  0.807646528689E+00
  0.785275260383E+00  0.762452564285E+00  0.740165085559E+00  0.719275477761E+00  0.700379453156E+00
  0.683727087647E+00  0.669550656513E+00  0.658133884078E+00  0.649782211913E+00  0.000000000000E+00
  0.000000000000E+00  0.000000000000E+00  0.000000000000E+00  0.000000000000E+00  0.000000000000E+00
  0.000000000000E+00  0.000000000000E+00  0.000000000000E+00  0.000000000000E+00  0.000000000000E+00
  0.000000000000E+00  0.000000000000E+00  0.000000000000E+00  0.000000000000E+00  0.000000000000E+00
  0.000000000000E+00  0.000000000000E+00  0.000000000000E+00  0.000000000000E+00  0.000000000000E+00
  0.000000000000E+00  0.000000000000E+00  0.000000000000E+00  0.000000000000E+00
 ae wavefunction
  0.471244480432E-07  0.513308500972E-07  0.558919936940E-07  0.608394954530E-07  0.662076669145E-07
  0.720337553741E-07  0.783582055402E-07  0.852249438783E-07  0.926816876797E-07  0.100780281077E-06
  0.109577060420E-06  0.119133251650E-06  0.129515402529E-06  0.140795852847E-06  0.153053246020E-06
  0.166373085756E-06  0.180848341850E-06  0.196580109491E-06  0.213678326874E-06  0.232262556344E-06
  0.252462834751E-06  0.274420599250E-06  0.298289695262E-06  0.324237474027E-06  0.352445987728E-06
  0.383113290996E-06  0.416454858338E-06  0.452705127904E-06  0.492119182950E-06  0.534974583420E-06
  0.581573361122E-06  0.632244193279E-06  0.687344770477E-06  0.747264376626E-06  0.812426699961E-06
  0.883292896041E-06  0.960364925416E-06  0.104418919087E-05  0.113536050126E-05  0.123452639147E-05
  0.134239183084E-05  0.145972435505E-05  0.158735965991E-05  0.172620769894E-05  0.187725933022E-05
  0.204159356247E-05  0.222038545465E-05  0.241491472819E-05  0.262657515671E-05  0.285688480351E-05
  0.310749718398E-05  0.338021343654E-05  0.367699559388E-05  0.399998105405E-05  0.435149836038E-05
  0.473408440879E-05  0.515050321198E-05  0.560376636144E-05  0.609715534124E-05  0.663424586113E-05
  0.721893439181E-05  0.785546710144E-05  0.854847141055E-05  0.930299040171E-05  0.101245203418E-04
  0.110190515972E-04  0.119931132481E-04  0.130538217342E-04  0.142089338944E-04  0.154669047955E-04
  0.168369507775E-04  0.183291181852E-04  0.199543582918E-04  0.217246089683E-04  0.236528837002E-04
  0.257533686023E-04  0.280415281449E-04  0.305342203589E-04  0.332498223607E-04  0.362083671033E-04
  0.394316923425E-04  0.429436028886E-04  0.467700473042E-04  0.509393103085E-04  0.554822222510E-04
  0.604323871353E-04  0.658264307896E-04  0.717042709202E-04  0.781094109183E-04  0.850892594471E-04
  0.926954779982E-04  0.100984358780E-03  0.110017235489E-03  0.119860929718E-03  0.130588235962E-03
  0.142278448423E-03  0.155017933041E-03  0.168900748461E-03  0.184029319903E-03  0.200515170194E-03
  0.218479712550E-03  0.238055110001E-03  0.259385206708E-03  0.282626536789E-03  0.307949416640E-03
  0.335539127145E-03  0.365597192592E-03  0.398342763529E-03  0.434014111261E-03  0.472870242147E-03
  0.515192640330E-03  0.561287148029E-03  0.611485993024E-03  0.666149973438E-03  0.725670810467E-03
  0.790473680167E-03  0.861019935914E-03  0.937810033628E-03  0.102138667228E-02  0.111233816265E-02
  0.121130203761E-02  0.131896891757E-02  0.143608664502E-02  0.156346470202E-02  0.170197892489E-02
  0.185257653000E-02  0.201628146437E-02  0.219420009459E-02  0.238752724669E-02  0.259755260897E-02
  0.282566750862E-02  0.307337207150E-02  0.334228277274E-02  0.363414038373E-02  0.395081831825E-02
  0.429433137761E-02  0.466684489089E-02  0.507068424196E-02  0.550834477020E-02  0.598250202582E-02
  0.649602235424E-02  0.705197377628E-02  0.765363712259E-02  0.830451737075E-02  0.900835512293E-02
  0.976913814982E-02  0.105911129128E-01  0.114787959619E-01  0.124369850900E-01  0.134707701068E-01
  0.145855430748E-01  0.157870078299E-01  0.170811885855E-01  0.184744373930E-01  0.199734402073E-01
  0.215852212733E-01  0.233171455232E-01  0.251769186344E-01  0.271725843660E-01  0.293125187479E-01
  0.316054206548E-01  0.340602982494E-01  0.366864507317E-01  0.394934447866E-01  0.424910850833E-01
  0.456893781511E-01  0.490984889396E-01  0.527286893725E-01  0.565902982057E-01  0.606936115113E-01
  0.650488231171E-01  0.696659343347E-01  0.745546523125E-01  0.797242763599E-01  0.851835716042E-01
  0.909406293734E-01  0.970027137482E-01  0.103376093802E+00  0.110065861153E+00  0.117075732596E+00
  0.124407837763E+00  0.132062491962E+00  0.140037954617E+00  0.148330173991E+00  0.156932519232E+00
  0.165835501106E+00  0.175026483247E+00  0.184489386140E+00  0.194204386583E+00  0.204147615871E+00
  0.214290860512E+00  0.224601269848E+00  0.235041075544E+00  0.245567328518E+00  0.256131659466E+00
  0.266680069696E+00  0.277152759542E+00  0.287484002073E+00  0.297602070182E+00  0.307429225334E+00
  0.316881776177E+00  0.325870214912E+00  0.334299438576E+00  0.342069061635E+00  0.349073825646E+00
  0.355204111961E+00  0.360346564857E+00  0.364384835118E+00  0.367200456969E+00  0.368673873011E+00
  0.368685620426E+00  0.367117685635E+00  0.363855023320E+00  0.358787223102E+00  0.351810299511E+00
  0.342828581643E+00  0.331756683364E+00  0.318521536204E+00  0.303064463439E+00  0.285343268147E+00
  0.265334303511E+00  0.243034490973E+00  0.218463249593E+00  0.191664297564E+00  0.162707283676E+00
  0.131689203371E+00  0.987355512160E-01  0.640011600114E-01  0.276706766558E-01 -0.100413732127E-01
 -0.488909757761E-01 -0.886055127466E-01 -0.128885168085E+00 -0.169404876303E+00 -0.209816812920E+00
 -0.249753397046E+00 -0.288830730094E+00 -0.326652346588E+00 -0.362813143654E+00 -0.396903443062E+00
 -0.428513347811E+00 -0.457237770075E+00 -0.482682403409E+00 -0.504470331505E+00 -0.522248497774E+00
 -0.535693510889E+00 -0.544516789623E+00 -0.548469231015E+00 -0.547345463122E+00 -0.540987588586E+00
 -0.529288259682E+00 -0.512192952608E+00 -0.489701381503E+00 -0.461868060492E+00 -0.428802061623E+00
 -0.390666030177E+00 -0.347674517102E+00 -0.300091680806E+00 -0.248228401694E+00 -0.192438846013E+00
 -0.133116512209E+00 -0.706897943592E-01 -0.561710368763E-02  0.616184004655E-01  0.130514405504E+00
  0.200555286333E+00  0.271218092354E+00  0.341978552402E+00  0.412316932493E+00  0.481723551167E+00
  0.549703778149E+00  0.615782458131E+00  0.679507905160E+00  0.740455793254E+00  0.798233258363E+00
  0.852483288301E+00  0.902889148970E+00  0.949178425220E+00  0.991126300830E+00  0.102855786830E+01
  0.106134940502E+01  0.108942863118E+01  0.111277399425E+01  0.113141304414E+01  0.114541998164E+01
  0.115491249034E+01  0.116004798068E+01  0.116101938703E+01  0.115805066647E+01  0.115139214213E+01
  0.114131582022E+01  0.112811080081E+01  0.111207888824E+01  0.109353048242E+01  0.107278082298E+01
  0.105014664124E+01  0.102594325814E+01  0.100048215605E+01  0.974069038860E+00  0.947002385767E+00
  0.919572495942E+00  0.892061014691E+00  0.864740928443E+00  0.837877013140E+00  0.811726722677E+00
  0.786541504103E+00  0.762568536733E+00  0.740052895205E+00  0.719240153218E+00  0.700379453156E+00
  0.683727087647E+00  0.669550656513E+00  0.658133884078E+00  0.649782211913E+00  0.000000000000E+00
  0.000000000000E+00  0.000000000000E+00  0.000000000000E+00  0.000000000000E+00  0.000000000000E+00
  0.000000000000E+00  0.000000000000E+00  0.000000000000E+00  0.000000000000E+00  0.000000000000E+00
  0.000000000000E+00  0.000000000000E+00  0.000000000000E+00  0.000000000000E+00  0.000000000000E+00
  0.000000000000E+00  0.000000000000E+00  0.000000000000E+00  0.000000000000E+00  0.000000000000E+00
  0.000000000000E+00  0.000000000000E+00  0.000000000000E+00  0.000000000000E+00
 pseudo wavefunction
  0.776525968987E-04  0.801776656248E-04  0.827848432860E-04  0.854767998600E-04  0.882562921455E-04
  0.911261665854E-04  0.940893621818E-04  0.971489135059E-04  0.100307953805E-03  0.103569718213E-03
  0.106937547062E-03  0.110414889301E-03  0.114005306034E-03  0.117712474160E-03  0.121540190144E-03
  0.125492373900E-03  0.129573072811E-03  0.133786465867E-03  0.138136867953E-03  0.142628734258E-03
  0.147266664846E-03  0.152055409364E-03  0.156999871903E-03  0.162105116024E-03  0.167376369944E-03
  0.172819031886E-03  0.178438675611E-03  0.184241056125E-03  0.190232115571E-03  0.196417989316E-03
  0.202805012236E-03  0.209399725198E-03  0.216208881765E-03  0.223239455104E-03  0.230498645138E-03
  0.237993885909E-03  0.245732853197E-03  0.253723472379E-03  0.261973926544E-03  0.270492664877E-03
  0.279288411308E-03  0.288370173446E-03  0.297747251806E-03  0.307429249333E-03  0.317426081235E-03
  0.327747985136E-03  0.338405531565E-03  0.349409634773E-03  0.360771563920E-03  0.372502954607E-03
  0.384615820796E-03  0.397122567115E-03  0.410036001556E-03  0.423369348594E-03  0.437136262733E-03
  0.451350842486E-03  0.466027644811E-03  0.481181700023E-03  0.496828527185E-03  0.512984150000E-03
  0.529665113219E-03  0.546888499586E-03  0.564671947334E-03  0.583033668242E-03  0.601992466293E-03
  0.621567756922E-03  0.641779586909E-03  0.662648654897E-03  0.684196332598E-03  0.706444686676E-03
  0.729416501343E-03  0.753135301694E-03  0.777625377798E-03  0.802911809571E-03  0.829020492462E-03
  0.855978163969E-03  0.883812431021E-03  0.912551798251E-03  0.942225697183E-03  0.972864516372E-03
  0.100449963253E-02  0.103716344264E-02  0.107088939716E-02  0.110571203426E-02  0.114166701517E-02
  0.117879116075E-02  0.121712248916E-02  0.125670025478E-02  0.129756498845E-02  0.133975853895E-02
  0.138332411583E-02  0.142830633373E-02  0.147475125796E-02  0.152270645179E-02  0.157222102506E-02
  0.162334568451E-02  0.167613278570E-02  0.173063638663E-02  0.178691230306E-02  0.184501816571E-02
  0.190501347924E-02  0.196695968319E-02  0.203092021491E-02  0.209696057446E-02  0.216514839175E-02
  0.223555349573E-02  0.230824798593E-02  0.238330630625E-02  0.246080532122E-02  0.254082439464E-02
  0.262344547090E-02  0.270875315886E-02  0.279683481845E-02  0.288778065012E-02  0.298168378723E-02
  0.307864039132E-02  0.317874975064E-02  0.328211438173E-02  0.338884013439E-02  0.349903630004E-02
  0.361281572360E-02  0.373029491900E-02  0.385159418842E-02  0.397683774548E-02  0.410615384232E-02
  0.423967490088E-02  0.437753764848E-02  0.451988325767E-02  0.466685749075E-02  0.481861084893E-02
  0.497529872633E-02  0.513708156896E-02  0.530412503891E-02  0.547660018384E-02  0.565468361195E-02
  0.583855767266E-02  0.602841064312E-02  0.622443692080E-02  0.642683722229E-02  0.663581878858E-02
  0.685159559696E-02  0.707438857978E-02  0.730442585037E-02  0.754194293619E-02  0.778718301954E-02
  0.804039718613E-02  0.830184468161E-02  0.857179317647E-02  0.885051903943E-02  0.913830761972E-02
  0.943545353851E-02  0.974226098965E-02  0.100590440502E-01  0.103861270010E-01  0.107238446574E-01
  0.110725427111E-01  0.114325780823E-01  0.118043192839E-01  0.121881467968E-01  0.125844534578E-01
  0.129936448598E-01  0.134161397644E-01  0.138523705284E-01  0.143027835436E-01  0.147678396907E-01
  0.152480148079E-01  0.157438001741E-01  0.162557030080E-01  0.167842469826E-01  0.173299727565E-01
  0.178934385218E-01  0.184752205696E-01  0.190759138730E-01  0.196961326891E-01  0.203365111796E-01
  0.209977040512E-01  0.216803872155E-01  0.223852584707E-01  0.231130382032E-01  0.238644701127E-01
  0.246403219581E-01  0.254413863281E-01  0.262684814342E-01  0.271224519297E-01  0.280041697518E-01
  0.289145349915E-01  0.298544767883E-01  0.308249542529E-01  0.318269574171E-01  0.328615082130E-01
  0.339296614800E-01  0.350325060029E-01  0.361711655794E-01  0.373468001197E-01  0.385606067768E-01
  0.398138211100E-01  0.411077182813E-01  0.424436142848E-01  0.438228672112E-01  0.452468785458E-01
  0.467170945031E-01  0.482350073952E-01  0.498021570379E-01  0.514201321919E-01  0.530905720407E-01
  0.548151677055E-01  0.565956637961E-01  0.584338599989E-01  0.603316127012E-01  0.622908366507E-01
  0.643135066518E-01  0.664016592950E-01  0.685573947217E-01  0.707828784204E-01  0.730803430543E-01
  0.754520903190E-01  0.779004928263E-01  0.804279960143E-01  0.830371200782E-01  0.857304619202E-01
  0.885106971147E-01  0.913805818828E-01  0.943429550727E-01  0.974007401395E-01  0.100556947117E+00
  0.103814674575E+00  0.107177111556E+00  0.110647539473E+00  0.114229333968E+00  0.117925966717E+00
  0.121741007160E+00  0.125678124147E+00  0.129741087486E+00  0.133933769367E+00  0.138260145643E+00
  0.142724296946E+00  0.147330409606E+00  0.152082776354E+00  0.156985796761E+00  0.162043977387E+00
  0.167261931597E+00  0.172644378995E+00  0.178196144427E+00  0.183922156493E+00  0.189827445520E+00
  0.195917140900E+00  0.202196467743E+00  0.208670742739E+00  0.215345369145E+00  0.222225830786E+00
  0.229317684960E+00  0.236626554105E+00  0.244158116097E+00  0.251918093009E+00  0.259912238166E+00
  0.268146321288E+00  0.276626111515E+00  0.285357358067E+00  0.294345768282E+00  0.303596982732E+00
  0.313116547096E+00  0.322909880431E+00  0.332982239458E+00  0.343338678399E+00  0.353984003921E+00
  0.364922724624E+00  0.376158994519E+00  0.387696549830E+00  0.399538638438E+00  0.411687941181E+00
  0.424146484171E+00  0.436915541214E+00  0.449995525309E+00  0.463385868157E+00  0.477084886481E+00
  0.491089633881E+00  0.505395736858E+00  0.519997213538E+00  0.534886273523E+00  0.550053097237E+00
  0.565485593027E+00  0.581169130251E+00  0.597086246510E+00  0.613216327208E+00  0.629535255635E+00
  0.646015031872E+00  0.662623358956E+00  0.679323195022E+00  0.696072270454E+00  0.712822569613E+00
  0.729519777340E+00  0.746102691306E+00  0.762502602386E+00  0.778642646589E+00  0.794437133823E+00
  0.809790860820E+00  0.824598418073E+00  0.838743503607E+00  0.852098259883E+00  0.864522654156E+00
  0.875863927175E+00  0.885956140186E+00  0.894619855770E+00  0.901661993957E+00  0.906875911148E+00
  0.910041755424E+00  0.910927157400E+00  0.909288320478E+00  0.904871577531E+00  0.897411882991E+00
  0.886727235476E+00  0.872937223446E+00  0.856255691846E+00  0.836909370481E+00  0.815135773422E+00
  0.791181000201E+00  0.765297407167E+00  0.737741140185E+00  0.708769533676E+00  0.678638418354E+00
  0.647599394154E+00  0.615897180609E+00  0.583767130684E+00  0.551433036712E+00  0.519105318665E+00
  0.486979665003E+00  0.455236156775E+00  0.424038862991E+00  0.393535854042E+00  0.363859545302E+00
  0.335127259010E+00  0.307441882436E+00  0.280892506117E+00  0.255554947965E+00  0.231492105155E+00
  0.208754120461E+00  0.187378395425E+00  0.167389520555E+00  0.148799215457E+00
 ae wavefunction
 -0.660238159250E-02 -0.677486619345E-02 -0.695176048418E-02 -0.713317215963E-02 -0.731921122223E-02
 -0.750999001194E-02 -0.770562323508E-02 -0.790622799199E-02 -0.811192380351E-02 -0.832283263586E-02
 -0.853907892411E-02 -0.876078959370E-02 -0.898809408009E-02 -0.922112434617E-02 -0.946001489737E-02
 -0.970490279403E-02 -0.995592766100E-02 -0.102132316941E-01 -0.104769596631E-01 -0.107472589109E-01
 -0.110242793495E-01 -0.113081734498E-01 -0.115990962291E-01 -0.118972052314E-01 -0.122026605036E-01
 -0.125156245650E-01 -0.128362623713E-01 -0.131647412707E-01 -0.135012309538E-01 -0.138459033952E-01
 -0.141989327867E-01 -0.145604954615E-01 -0.149307698095E-01 -0.153099361815E-01 -0.156981767833E-01
 -0.160956755577E-01 -0.165026180547E-01 -0.169191912879E-01 -0.173455835775E-01 -0.177819843785E-01
 -0.182285840923E-01 -0.186855738627E-01 -0.191531453529E-01 -0.196314905049E-01 -0.201208012778E-01
 -0.206212693654E-01 -0.211330858914E-01 -0.216564410803E-01 -0.221915239041E-01 -0.227385217013E-01
 -0.232976197684E-01 -0.238690009216E-01 -0.244528450275E-01 -0.250493284997E-01 -0.256586237618E-01
 -0.262808986728E-01 -0.269163159141E-01 -0.275650323357E-01 -0.282271982600E-01 -0.289029567399E-01
 -0.295924427702E-01 -0.302957824493E-01 -0.310130920887E-01 -0.317444772682E-01 -0.324900318343E-01
 -0.332498368380E-01 -0.340239594117E-01 -0.348124515792E-01 -0.356153489994E-01 -0.364326696378E-01
 -0.372644123650E-01 -0.381105554783E-01 -0.389710551432E-01 -0.398458437526E-01 -0.407348281996E-01
 -0.416378880624E-01 -0.425548736963E-01 -0.434856042317E-01 -0.444298654742E-01 -0.453874077041E-01
 -0.463579433729E-01 -0.473411446939E-01 -0.483366411247E-01 -0.493440167398E-01 -0.503628074899E-01
 -0.513924983485E-01 -0.524325203422E-01 -0.534822474656E-01 -0.545409934788E-01 -0.556080085888E-01
 -0.566824760142E-01 -0.577635084353E-01 -0.588501443311E-01 -0.599413442063E-01 -0.610359867110E-01
 -0.621328646591E-01 -0.632306809502E-01 -0.643280444022E-01 -0.654234655033E-01 -0.665153520926E-01
 -0.676020049810E-01 -0.686816135263E-01 -0.697522511767E-01 -0.708118710000E-01 -0.718583012193E-01
 -0.728892407760E-01 -0.739022549456E-01 -0.748947710331E-01 -0.758640741800E-01 -0.768073033165E-01
 -0.777214472957E-01 -0.786033412530E-01 -0.794496632349E-01 -0.802569311473E-01 -0.810215000789E-01
 -0.817395600570E-01 -0.824071343016E-01 -0.830200780469E-01 -0.835740780051E-01 -0.840646525533E-01
 -0.844871527311E-01 -0.848367641407E-01 -0.851085098500E-01 -0.852972544022E-01 -0.853977090469E-01
 -0.854044383078E-01 -0.853118680138E-01 -0.851142949247E-01 -0.848058980864E-01 -0.843807520606E-01
 -0.838328421760E-01 -0.831560819530E-01 -0.823443328597E-01 -0.813914265587E-01 -0.802911898054E-01
 -0.790374721627E-01 -0.776241766918E-01 -0.760452937809E-01 -0.742949382662E-01 -0.723673899939E-01
 -0.702571379647E-01 -0.679589281873E-01 -0.654678153539E-01 -0.627792184336E-01 -0.598889802533E-01
 -0.567934311116E-01 -0.534894564390E-01 -0.499745684790E-01 -0.462469819240E-01 -0.423056933897E-01
 -0.381505645563E-01 -0.337824087423E-01 -0.292030806057E-01 -0.244155685902E-01 -0.194240896482E-01
 -0.142341856789E-01 -0.885282102003E-02 -0.328848023033E-02  0.244873471221E-02  0.834700877516E-02
  0.143927208901E-01  0.205703548242E-01  0.268624152192E-01  0.332493502399E-01  0.397094824190E-01
  0.462189494617E-01  0.527516569667E-01  0.592792452364E-01  0.657710725537E-01  0.721942174827E-01
  0.785135028831E-01  0.846915444076E-01  0.906888262826E-01  0.964638071499E-01  0.101973058693E+00
  0.107171439670E+00  0.112012307834E+00  0.116447772060E+00  0.120428986758E+00  0.123906490402E+00
  0.126830589682E+00  0.129151790342E+00  0.130821275322E+00  0.131791430202E+00  0.132016415285E+00
  0.131452782844E+00  0.130060137193E+00  0.127801834227E+00  0.124645715974E+00  0.120564874513E+00
  0.115538438314E+00  0.109552372682E+00  0.102600284593E+00  0.946842206956E-01  0.858154458419E-01
  0.760151880155E-01  0.653153341732E-01  0.537590602222E-01  0.414013772312E-01  0.283095750589E-01
  0.145635439547E-01  0.255954457912E-03 -0.145077238043E-01 -0.296093829308E-01 -0.449186342116E-01
 -0.602933774204E-01 -0.755805952648E-01 -0.906173849284E-01 -0.105232237801E+00 -0.119246577798E+00
 -0.132476567074E+00 -0.144735183883E+00 -0.155834569454E+00 -0.165588629493E+00 -0.173815864356E+00
 -0.180342393808E+00 -0.185005137407E+00 -0.187655106911E+00 -0.188160760719E+00 -0.186411362829E+00
 -0.182320282151E+00 -0.175828162917E+00 -0.166905893306E+00 -0.155557296608E+00 -0.141821467211E+00
 -0.125774672671E+00 -0.107531743483E+00 -0.872468746171E-01 -0.651137678192E-01 -0.413650514596E-01
 -0.162709256938E-01  0.986300536529E-02  0.366987359390E-01  0.638696969162E-01  0.909854071404E-01
  0.117636881910E+00  0.143402700609E+00  0.167855591232E+00  0.190569368880E+00  0.211126104391E+00
  0.229123512886E+00  0.244182670476E+00  0.255956099226E+00  0.264135918561E+00  0.268461492661E+00
  0.268726155174E+00  0.264782904122E+00  0.256549072526E+00  0.244009924466E+00  0.227221060428E+00
  0.206309508084E+00  0.181473420666E+00  0.152980372214E+00  0.121164297073E+00  0.864211585910E-01
  0.492034526018E-01  0.100136623959E-01 -0.306032107916E-01 -0.720679111120E-01 -0.113775846979E+00
 -0.155106517924E+00 -0.195433291056E+00 -0.234133357368E+00 -0.270597687817E+00 -0.304240801461E+00
 -0.334510152620E+00 -0.360894940412E+00 -0.382934139630E+00 -0.400223555025E+00 -0.412421724787E+00
 -0.419254571875E+00 -0.420518824503E+00 -0.416084353879E+00 -0.405895616758E+00 -0.389972279060E+00
 -0.368408904633E+00 -0.341373459575E+00 -0.309104420675E+00 -0.271906429980E+00 -0.230144598443E+00
 -0.184237659094E+00 -0.134650209596E+00 -0.818842938203E-01 -0.264705743936E-01  0.310406554158E-01
  0.900883819294E-01  0.150109484998E+00  0.210546864749E+00  0.270856923958E+00  0.330516285283E+00
  0.389027658174E+00  0.445924805214E+00  0.500776590465E+00  0.553190118522E+00  0.602812998756E+00
  0.649334789404E+00  0.692487691275E+00  0.732046573751E+00  0.767828422528E+00  0.799691302552E+00
  0.827532929726E+00  0.851288940682E+00  0.870930944110E+00  0.886464427222E+00  0.897926581297E+00
  0.905384095173E+00  0.908930957737E+00  0.908686292045E+00  0.904792237974E+00  0.897411882991E+00
  0.886727235476E+00  0.872937223446E+00  0.856255691846E+00  0.836909370481E+00  0.815135773422E+00
  0.791181000201E+00  0.765297407167E+00  0.737741140185E+00  0.708769533676E+00  0.678638418354E+00
  0.647599394154E+00  0.615897180609E+00  0.583767130684E+00  0.551433036712E+00  0.519105318665E+00
  0.486979665003E+00  0.455236156775E+00  0.424038862991E+00  0.393535854042E+00  0.363859545302E+00
  0.335127259010E+00  0.307441882436E+00  0.280892506117E+00  0.255554947965E+00  0.231492105155E+00
  0.208754120461E+00  0.187378395425E+00  0.167389520555E+00  0.148799215457E+00
 pseudo wavefunction
  0.118834574112E-03  0.122698777998E-03  0.126688636154E-03  0.130808234543E-03  0.135061791994E-03
  0.139453664520E-03  0.143988349784E-03  0.148670491698E-03  0.153504885186E-03  0.158496481088E-03
  0.163650391235E-03  0.168971893680E-03  0.174466438107E-03  0.180139651410E-03  0.185997343454E-03
  0.192045513027E-03  0.198290353983E-03  0.204738261586E-03  0.211395839054E-03  0.218269904329E-03
  0.225367497054E-03  0.232695885783E-03  0.240262575426E-03  0.248075314935E-03  0.256142105235E-03
  0.264471207424E-03  0.273071151231E-03  0.281950743747E-03  0.291119078451E-03  0.300585544517E-03
  0.310359836433E-03  0.320451963925E-03  0.330872262213E-03  0.341631402590E-03  0.352740403356E-03
  0.364210641094E-03  0.376053862329E-03  0.388282195551E-03  0.400908163639E-03  0.413944696685E-03
  0.427405145234E-03  0.441303293957E-03  0.455653375770E-03  0.470470086405E-03  0.485768599463E-03
  0.501564581954E-03  0.517874210336E-03  0.534714187088E-03  0.552101757810E-03  0.570054728886E-03
  0.588591485716E-03  0.607731011551E-03  0.627492906925E-03  0.647897409735E-03  0.668965415959E-03
  0.690718501064E-03  0.713178942093E-03  0.736369740481E-03  0.760314645613E-03  0.785038179142E-03
  0.810565660103E-03  0.836923230840E-03  0.864137883781E-03  0.892237489075E-03  0.921250823138E-03
  0.951207598121E-03  0.982138492336E-03  0.101407518168E-02  0.104705037205E-02  0.108109783287E-02
  0.111625243165E-02  0.115255016972E-02  0.119002821903E-02  0.122872496031E-02  0.126868002232E-02
  0.130993432241E-02  0.135253010850E-02  0.139651100226E-02  0.144192204383E-02  0.148880973795E-02
  0.153722210153E-02  0.158720871290E-02  0.163882076251E-02  0.169211110539E-02  0.174713431527E-02
  0.180394674045E-02  0.186260656153E-02  0.192317385097E-02  0.198571063462E-02  0.205028095520E-02
  0.211695093796E-02  0.218578885829E-02  0.225686521173E-02  0.233025278610E-02  0.240602673605E-02
  0.248426466004E-02  0.256504667978E-02  0.264845552226E-02  0.273457660452E-02  0.282349812103E-02
  0.291531113408E-02  0.301010966699E-02  0.310799080037E-02  0.320905477157E-02  0.331340507727E-02
  0.342114857948E-02  0.353239561498E-02  0.364726010825E-02  0.376585968815E-02  0.388831580835E-02
  0.401475387169E-02  0.414530335856E-02  0.428009795949E-02  0.441927571203E-02  0.456297914204E-02
  0.471135540967E-02  0.486455645996E-02  0.502273917842E-02  0.518606555168E-02  0.535470283324E-02
  0.552882371477E-02  0.570860650284E-02  0.589423530144E-02  0.608590020048E-02  0.628379747033E-02
  0.648812976269E-02  0.669910631809E-02  0.691694317994E-02  0.714186341572E-02  0.737409734525E-02
  0.761388277636E-02  0.786146524827E-02  0.811709828284E-02  0.838104364395E-02  0.865357160536E-02
  0.893496122719E-02  0.922550064144E-02  0.952548734667E-02  0.983522851239E-02  0.101550412932E-01
  0.104852531530E-01  0.108262022002E-01  0.111782375330E-01  0.115417195968E-01  0.119170205523E-01
  0.123045246560E-01  0.127046286530E-01  0.131177421826E-01  0.135442881964E-01  0.139847033910E-01
  0.144394386535E-01  0.149089595224E-01  0.153937466628E-01  0.158942963570E-01  0.164111210115E-01
  0.169447496793E-01  0.174957286001E-01  0.180646217572E-01  0.186520114529E-01  0.192584989017E-01
  0.198847048434E-01  0.205312701754E-01  0.211988566052E-01  0.218881473242E-01  0.225998477031E-01
  0.233346860092E-01  0.240934141472E-01  0.248768084229E-01  0.256856703321E-01  0.265208273743E-01
  0.273831338923E-01  0.282734719383E-01  0.291927521679E-01  0.301419147626E-01  0.311219303804E-01
  0.321338011379E-01  0.331785616223E-01  0.342572799358E-01  0.353710587723E-01  0.365210365284E-01
  0.377083884485E-01  0.389343278062E-01  0.402001071216E-01  0.415070194172E-01  0.428563995117E-01
  0.442496253538E-01  0.456881193976E-01  0.471733500183E-01  0.487068329725E-01  0.502901329017E-01
  0.519248648810E-01  0.536126960140E-01  0.553553470757E-01  0.571545942024E-01  0.590122706328E-01
  0.609302684978E-01  0.629105406636E-01  0.649551026254E-01  0.670660344567E-01  0.692454828108E-01
  0.714956629792E-01  0.738188610050E-01  0.762174358538E-01  0.786938216408E-01  0.812505299170E-01
  0.838901520128E-01  0.866153614397E-01  0.894289163517E-01  0.923336620641E-01  0.953325336301E-01
  0.984285584760E-01  0.101624859092E+00  0.104924655778E+00  0.108331269446E+00  0.111848124469E+00
  0.115478751587E+00  0.119226790850E+00  0.123095994615E+00  0.127090230572E+00  0.131213484812E+00
  0.135469864917E+00  0.139863603074E+00  0.144399059208E+00  0.149080724111E+00  0.153913222573E+00
  0.158901316494E+00  0.164049907965E+00  0.169364042309E+00  0.174848911051E+00  0.180509854817E+00
  0.186352366118E+00  0.192382092015E+00  0.198604836618E+00  0.205026563403E+00  0.211653397299E+00
  0.218491626504E+00  0.225547703998E+00  0.232828248684E+00  0.240340046102E+00  0.248090048662E+00
  0.256085375301E+00  0.264333310496E+00  0.272841302534E+00  0.281616960924E+00  0.290668052841E+00
  0.300002498459E+00  0.309628365022E+00  0.319553859480E+00  0.329787319494E+00  0.340337202593E+00
  0.351212073227E+00  0.362420587452E+00  0.373971474910E+00  0.385873517768E+00  0.398135526211E+00
  0.410766310022E+00  0.423774645759E+00  0.437169238948E+00  0.450958680638E+00  0.465151397601E+00
  0.479755595343E+00  0.494779193020E+00  0.510229749206E+00  0.526114377354E+00  0.542439649648E+00
  0.559211487772E+00  0.576435038963E+00  0.594114535511E+00  0.612253135681E+00  0.630852743764E+00
  0.649913806764E+00  0.669435084918E+00  0.689413392999E+00  0.709843309026E+00  0.730716846721E+00
  0.752023087710E+00  0.773747769190E+00  0.795872822453E+00  0.818375857409E+00  0.841229588012E+00
  0.864401193357E+00  0.887851609140E+00  0.911534744281E+00  0.935396617772E+00  0.959374411331E+00
  0.983395434278E+00  0.100737599827E+01  0.103122020130E+01  0.105481862260E+01  0.107804693334E+01
  0.110076443186E+01  0.112281251725E+01  0.114401312142E+01  0.116416712743E+01  0.118305281128E+01
  0.120042435530E+01  0.121601049445E+01  0.122951337170E+01  0.124060769581E+01  0.124894031363E+01
  0.125413032926E+01  0.125576992421E+01  0.125342605357E+01  0.124664321397E+01  0.123494749587E+01
  0.121785214507E+01  0.119486486152E+01  0.116549705504E+01  0.112927525288E+01  0.108575480710E+01
  0.103462710805E+01  0.975996414289E+00  0.910090172214E+00  0.837163004599E+00  0.000000000000E+00
  0.000000000000E+00  0.000000000000E+00  0.000000000000E+00  0.000000000000E+00  0.000000000000E+00
  0.000000000000E+00  0.000000000000E+00  0.000000000000E+00  0.000000000000E+00  0.000000000000E+00
  0.000000000000E+00  0.000000000000E+00  0.000000000000E+00  0.000000000000E+00  0.000000000000E+00
  0.000000000000E+00  0.000000000000E+00  0.000000000000E+00  0.000000000000E+00  0.000000000000E+00
  0.000000000000E+00  0.000000000000E+00  0.000000000000E+00  0.000000000000E+00
 ae wavefunction
 -0.981195676868E-02 -0.100682902303E-01 -0.103311770344E-01 -0.106007772287E-01 -0.108772542904E-01
 -0.111607751704E-01 -0.114515103361E-01 -0.117496338131E-01 -0.120553232237E-01 -0.123687598247E-01
 -0.126901285417E-01 -0.130196180013E-01 -0.133574205604E-01 -0.137037323317E-01 -0.140587532068E-01
 -0.144226868737E-01 -0.147957408320E-01 -0.151781264018E-01 -0.155700587284E-01 -0.159717567814E-01
 -0.163834433475E-01 -0.168053450174E-01 -0.172376921651E-01 -0.176807189198E-01 -0.181346631305E-01
 -0.185997663204E-01 -0.190762736331E-01 -0.195644337680E-01 -0.200644989058E-01 -0.205767246209E-01
 -0.211013697828E-01 -0.216386964438E-01 -0.221889697120E-01 -0.227524576100E-01 -0.233294309169E-01
 -0.239201629933E-01 -0.245249295880E-01 -0.251440086250E-01 -0.257776799699E-01 -0.264262251745E-01
 -0.270899271973E-01 -0.277690700995E-01 -0.284639387146E-01 -0.291748182901E-01 -0.299019940987E-01
 -0.306457510187E-01 -0.314063730810E-01 -0.321841429804E-01 -0.329793415496E-01 -0.337922471937E-01
 -0.346231352832E-01 -0.354722775024E-01 -0.363399411513E-01 -0.372263883988E-01 -0.381318754836E-01
 -0.390566518606E-01 -0.400009592897E-01 -0.409650308649E-01 -0.419490899785E-01 -0.429533492193E-01
 -0.439780092006E-01 -0.450232573138E-01 -0.460892664056E-01 -0.471761933739E-01 -0.482841776785E-01
 -0.494133397635E-01 -0.505637793873E-01 -0.517355738552E-01 -0.529287761509E-01 -0.541434129635E-01
 -0.553794826040E-01 -0.566369528079E-01 -0.579157584199E-01 -0.592157989545E-01 -0.605369360301E-01
 -0.618789906703E-01 -0.632417404694E-01 -0.646249166167E-01 -0.660282007755E-01 -0.674512218132E-01
 -0.688935523778E-01 -0.703547053171E-01 -0.718341299377E-01 -0.733312080994E-01 -0.748452501433E-01
 -0.763754906501E-01 -0.779210840277E-01 -0.794810999252E-01 -0.810545184744E-01 -0.826402253573E-01
 -0.842370067010E-01 -0.858435438020E-01 -0.874584076823E-01 -0.890800534820E-01 -0.907068146930E-01
 -0.923368972413E-01 -0.939683734267E-01 -0.955991757292E-01 -0.972270904955E-01 -0.988497515202E-01
 -0.100464633538E+00 -0.102069045646E+00 -0.103660124684E+00 -0.105234828586E+00 -0.106789929748E+00
 -0.108322008435E+00 -0.109827446261E+00 -0.111302419798E+00 -0.112742894340E+00 -0.114144617888E+00
 -0.115503115404E+00 -0.116813683406E+00 -0.118071384951E+00 -0.119271045102E+00 -0.120407246952E+00
 -0.121474328289E+00 -0.122466378998E+00 -0.123377239312E+00 -0.124200499015E+00 -0.124929497723E+00
 -0.125557326359E+00 -0.126076829985E+00 -0.126480612113E+00 -0.126761040666E+00 -0.126910255749E+00
 -0.126920179416E+00 -0.126782527602E+00 -0.126488824428E+00 -0.126030419082E+00 -0.125398505477E+00
 -0.124584144922E+00 -0.123578292013E+00 -0.122371824003E+00 -0.120955573857E+00 -0.119320367266E+00
 -0.117457063830E+00 -0.115356602675E+00 -0.113010052732E+00 -0.110408667904E+00 -0.107543947353E+00
 -0.104407701113E+00 -0.100992121204E+00 -0.972898584442E-01 -0.932941050679E-01 -0.889986832829E-01
 -0.843981398163E-01 -0.794878464741E-01 -0.742641066797E-01 -0.687242678890E-01 -0.628668397107E-01
 -0.566916174779E-01 -0.501998109203E-01 -0.433941774863E-01 -0.362791597448E-01 -0.288610261715E-01
 -0.211480144838E-01 -0.131504765444E-01 -0.488102369470E-02  0.364532877756E-02  0.124110194945E-01
  0.213958027877E-01  0.305766162246E-01  0.399274558150E-01  0.494192610411E-01  0.590198120709E-01
  0.686936417736E-01  0.784019654489E-01  0.881026314977E-01  0.977500965688E-01  0.107295428983E+00
  0.116686344432E+00  0.125867278076E+00  0.134779497183E+00  0.143361258474E+00  0.151548014179E+00
  0.159272670744E+00  0.166465903855E+00  0.173056533218E+00  0.178971960219E+00  0.184138671161E+00
  0.188482808317E+00  0.191930810400E+00  0.194410123356E+00  0.195849981484E+00  0.196182257885E+00
  0.195342382085E+00  0.193270321308E+00  0.189911620447E+00  0.185218494100E+00  0.179150962272E+00
  0.171678019426E+00  0.162778824525E+00  0.152443897604E+00  0.140676306217E+00  0.127492822934E+00
  0.112925032901E+00  0.970203684354E-01  0.798430456953E-01  0.614748768215E-01  0.420159295527E-01
  0.215850054020E-01  0.319907129910E-03 -0.216225333420E-01 -0.440666941163E-01 -0.668186949576E-01
 -0.896672439692E-01 -0.112384819157E+00 -0.134729202653E+00 -0.156445384120E+00 -0.177267848853E+00
 -0.196923263665E+00 -0.215133567682E+00 -0.231619463401E+00 -0.246104286623E+00 -0.258318216721E+00
 -0.268002776562E+00 -0.274915564153E+00 -0.278835151197E+00 -0.279566074198E+00 -0.276943832580E+00
 -0.270839798327E+00 -0.261165934154E+00 -0.247879211683E+00 -0.230985617018E+00 -0.210543628008E+00
 -0.186667045918E+00 -0.159527064773E+00 -0.129353465242E+00 -0.964348271959E-01 -0.611176667112E-01
 -0.238044195251E-01  0.150497862851E-01  0.549416006365E-01  0.953251674139E-01  0.135619052007E+00
  0.175214297745E+00  0.213483465560E+00  0.249790445549E+00  0.283500798392E+00  0.313992442753E+00
  0.340666673637E+00  0.362959672471E+00  0.380354567738E+00  0.392393596263E+00  0.398689516201E+00
  0.398935648914E+00  0.392914389928E+00  0.380504196248E+00  0.361684973947E+00  0.336541692064E+00
  0.305266037367E+00  0.268155993050E+00  0.225613324160E+00  0.178139038776E+00  0.126326949701E+00
  0.708554920394E-01  0.124779684537E-01 -0.479885951079E-01 -0.109675790520E+00 -0.171677161195E+00
 -0.233062310167E+00 -0.292891547873E+00 -0.350230827743E+00 -0.404166701945E+00 -0.453821017895E+00
 -0.498365067849E+00 -0.537032898147E+00 -0.569133477915E+00 -0.594061431609E+00 -0.611306075364E+00
 -0.620458605389E+00 -0.621217469576E+00 -0.613392138572E+00 -0.596905549893E+00 -0.571795329434E+00
 -0.538213609288E+00 -0.496425064741E+00 -0.446802853551E+00 -0.389822371038E+00 -0.326052974301E+00
 -0.256147973601E+00 -0.180833247639E+00 -0.100894854396E+00 -0.171660131516E-01  0.694861717480E-01
  0.158173889484E+00  0.248001378094E+00  0.338076972264E+00  0.427524210185E+00  0.515491820846E+00
  0.601162466687E+00  0.683760169380E+00  0.762556396140E+00  0.836874823368E+00  0.906094833817E+00
  0.969653834065E+00  0.102704850209E+01  0.107783509438E+01  0.112162895217E+01  0.115810335186E+01
  0.118698784474E+01  0.120806622231E+01  0.122117423483E+01  0.122619717209E+01  0.122306739898E+01
  0.121176191273E+01  0.119229997271E+01  0.116474082312E+01  0.112918151518E+01  0.108575480710E+01
  0.103462710805E+01  0.975996414289E+00  0.910090172214E+00  0.837163004599E+00  0.000000000000E+00
  0.000000000000E+00  0.000000000000E+00  0.000000000000E+00  0.000000000000E+00  0.000000000000E+00
  0.000000000000E+00  0.000000000000E+00  0.000000000000E+00  0.000000000000E+00  0.000000000000E+00
  0.000000000000E+00  0.000000000000E+00  0.000000000000E+00  0.000000000000E+00  0.000000000000E+00
  0.000000000000E+00  0.000000000000E+00  0.000000000000E+00  0.000000000000E+00  0.000000000000E+00
  0.000000000000E+00  0.000000000000E+00  0.000000000000E+00  0.000000000000E+00
 pseudo wavefunction
  0.339883478785E-08  0.362347193266E-08  0.386295588533E-08  0.411826790699E-08  0.439045411272E-08
  0.468062975784E-08  0.498998380756E-08  0.531978380868E-08  0.567138108318E-08  0.604621626519E-08
  0.644582520377E-08  0.687184525598E-08  0.732602199569E-08  0.781021636599E-08  0.832641230411E-08
  0.887672487053E-08  0.946340891509E-08  0.100888683161E-07  0.107556658300E-07  0.114665335919E-07
  0.122243843104E-07  0.130323232018E-07  0.138936607138E-07  0.148119260895E-07  0.157908818282E-07
  0.168345391017E-07  0.179471741900E-07  0.191333460025E-07  0.203979147581E-07  0.217460618991E-07
  0.231833113220E-07  0.247155520107E-07  0.263490621664E-07  0.280905349317E-07  0.299471058151E-07
  0.319263819281E-07  0.340364731546E-07  0.362860253802E-07  0.386842559180E-07  0.412409912756E-07
  0.439667074182E-07  0.468725726929E-07  0.499704935900E-07  0.532731635283E-07  0.567941148655E-07
  0.605477743458E-07  0.645495222117E-07  0.688157552232E-07  0.733639538423E-07  0.782127538569E-07
  0.833820227396E-07  0.888929410526E-07  0.947680892333E-07  0.101031540115E-06  0.107708957563E-06
  0.114827701632E-06  0.122416940667E-06  0.130507770823E-06  0.139133343474E-06  0.148329001052E-06
  0.158132421856E-06  0.168583774437E-06  0.179725882185E-06  0.191604398793E-06  0.204267995323E-06
  0.217768559624E-06  0.232161408946E-06  0.247505516593E-06  0.263863753562E-06  0.281303146153E-06
  0.299895150603E-06  0.319715945873E-06  0.340846745783E-06  0.363374131783E-06  0.387390407713E-06
  0.412993978009E-06  0.440289750910E-06  0.469389568314E-06  0.500412664040E-06  0.533486152382E-06
  0.568745548953E-06  0.606335325952E-06  0.646409504127E-06  0.689132283876E-06  0.734678718038E-06
  0.783235429175E-06  0.835001374244E-06  0.890188659816E-06  0.949023411178E-06  0.101174669887E-05
  0.107861552648E-05  0.114990388368E-05  0.122590386893E-05  0.130692688633E-05  0.139330492160E-05
  0.148539190241E-05  0.158356514855E-05  0.168822691807E-05  0.179980605553E-05  0.191875974915E-05
  0.204557540423E-05  0.218077264027E-05  0.232490542020E-05  0.247856432020E-05  0.264237894972E-05
  0.281702053133E-05  0.300320465112E-05  0.320169419092E-05  0.341330245435E-05  0.363889649938E-05
  0.387940069132E-05  0.413580049056E-05  0.440914649072E-05  0.470055872369E-05  0.501123124922E-05
  0.534243704799E-05  0.569553323797E-05  0.607196663566E-05  0.647327968501E-05  0.690111677812E-05
  0.735723099385E-05  0.784349128190E-05  0.836189012169E-05  0.891455168769E-05  0.950374055440E-05
  0.101318709769E-04  0.108015167847E-04  0.115154219302E-04  0.122765117339E-04  0.130879048734E-04
  0.139529261649E-04  0.148751201901E-04  0.158582658234E-04  0.169063917203E-04  0.180237928295E-04
  0.192150479970E-04  0.204850387339E-04  0.218389692259E-04  0.232823876650E-04  0.248212089934E-04
  0.264617391495E-04  0.282107009193E-04  0.300752614965E-04  0.320630618659E-04  0.341822481299E-04
  0.364415049079E-04  0.388500909446E-04  0.414178770739E-04  0.441553866954E-04  0.470738389277E-04
  0.501851946179E-04  0.535022053962E-04  0.570384659755E-04  0.608084699142E-04  0.648276690685E-04
  0.691125369814E-04  0.736806364680E-04  0.785506916757E-04  0.837426649164E-04  0.892778385873E-04
  0.951789025180E-04  0.101470047104E-03  0.108177062610E-03  0.115327445058E-03  0.122950509126E-03
  0.131077508541E-03  0.139741764446E-03  0.148978802284E-03  0.158826497764E-03  0.169325232509E-03
  0.180518060033E-03  0.192450882742E-03  0.205172640685E-03  0.218735512838E-03  0.233195131776E-03
  0.248610812600E-03  0.265045797097E-03  0.282567514135E-03  0.301247857392E-03  0.321163481574E-03
  0.342396118367E-03  0.365032913439E-03  0.389166785921E-03  0.414896811871E-03  0.442328633335E-03
  0.471574894738E-03  0.502755708445E-03  0.535999151470E-03  0.571441795438E-03  0.609229272064E-03
  0.649516876541E-03  0.692470211454E-03  0.738265873940E-03  0.787092189084E-03  0.839149992700E-03
  0.894653466878E-03  0.953831031948E-03  0.101692629872E-02  0.108419908520E-02  0.115592650220E-02
  0.123240411270E-02  0.131394717002E-02  0.140089194035E-02  0.149359711560E-02  0.159244532283E-02
  0.169784473712E-02  0.181023080530E-02  0.193006808822E-02  0.205785223030E-02  0.219411206524E-02
  0.233941186787E-02  0.249435376265E-02  0.265958030029E-02  0.283577721461E-02  0.302367637313E-02
  0.322405893555E-02  0.343775873558E-02  0.366566590285E-02  0.390873074296E-02  0.416796789512E-02
  0.444446078865E-02  0.473936642100E-02  0.505392048232E-02  0.538944285324E-02  0.574734350523E-02
  0.612912883491E-02  0.653640846696E-02  0.697090256265E-02  0.743444967483E-02  0.792901519326E-02
  0.845670042838E-02  0.901975238572E-02  0.962057428771E-02  0.102617369049E-01  0.109459907638E-01
  0.116762793048E-01  0.124557530705E-01  0.132877850105E-01  0.141759869987E-01  0.151242276656E-01
  0.161366516580E-01  0.172177004483E-01  0.183721348265E-01  0.196050592188E-01  0.209219479892E-01
  0.223286738936E-01  0.238315388699E-01  0.254373073622E-01  0.271532423909E-01  0.289871445999E-01
  0.309473945239E-01  0.330429983392E-01  0.352836373748E-01  0.376797216786E-01  0.402424479461E-01
  0.429838621348E-01  0.459169270946E-01  0.490555955554E-01  0.524148888115E-01  0.560109814405E-01
  0.598612923804E-01  0.639845826659E-01  0.684010600856E-01  0.731324909700E-01  0.782023192423E-01
  0.836357927629E-01  0.894600968651E-01  0.957044948055E-01  0.102400474638E+00  0.109581901737E+00
  0.117285175878E+00  0.125549391324E+00  0.134416497922E+00  0.143931460540E+00  0.154142413492E+00
  0.165100805704E+00  0.176861531383E+00  0.189483039728E+00  0.203027415890E+00  0.217560423792E+00
  0.233151499653E+00  0.249873683069E+00  0.267803470320E+00  0.287020572175E+00  0.307607555955E+00
  0.329649348982E+00  0.353232577897E+00  0.378444715855E+00  0.405373007335E+00  0.434103138611E+00
  0.464717621020E+00  0.497293854372E+00  0.531901839737E+00  0.568601514780E+00  0.607439691566E+00
  0.648446586918E+00  0.691631949771E+00  0.736980809293E+00  0.784448892555E+00  0.833957791863E+00
  0.885389999801E+00  0.938583974539E+00  0.993329448326E+00  0.104936324656E+01  0.110636594068E+01
  0.116395971079E+01  0.122170783695E+01  0.127911626302E+01  0.133563767242E+01  0.139067846776E+01
  0.144372960470E+01  0.149475671942E+01  0.154387238569E+01  0.159122089598E+01  0.000000000000E+00
  0.000000000000E+00  0.000000000000E+00  0.000000000000E+00  0.000000000000E+00  0.000000000000E+00
  0.000000000000E+00  0.000000000000E+00  0.000000000000E+00  0.000000000000E+00  0.000000000000E+00
  0.000000000000E+00  0.000000000000E+00  0.000000000000E+00  0.000000000000E+00  0.000000000000E+00
  0.000000000000E+00  0.000000000000E+00  0.000000000000E+00  0.000000000000E+00  0.000000000000E+00
  0.000000000000E+00  0.000000000000E+00  0.000000000000E+00  0.000000000000E+00
 ae wavefunction
  0.468686457393E-04  0.494417054380E-04  0.521508018784E-04  0.550034072947E-04  0.580073919015E-04
  0.611710458512E-04  0.645031023768E-04  0.680127621825E-04  0.717097191521E-04  0.756041874466E-04
  0.797069300701E-04  0.840292889843E-04  0.885832168565E-04  0.933813105338E-04  0.984368463363E-04
  0.103763817271E-03  0.109376972272E-03  0.115291857580E-03  0.121524860375E-03  0.128093254788E-03
  0.135015250427E-03  0.142310043545E-03  0.149997871002E-03  0.158100067174E-03  0.166639123960E-03
  0.175638754069E-03  0.185123957757E-03  0.195121093201E-03  0.205657950705E-03  0.216763830953E-03
  0.228469627519E-03  0.240807913865E-03  0.253813035064E-03  0.267521204504E-03  0.281970605842E-03
  0.297201500477E-03  0.313256340833E-03  0.330179889778E-03  0.348019346475E-03  0.366824479011E-03
  0.386647764173E-03  0.407544534710E-03  0.429573134497E-03  0.452795081990E-03  0.477275242393E-03
  0.503082008998E-03  0.530287494132E-03  0.558967730223E-03  0.589202881458E-03  0.621077466579E-03
  0.654680593352E-03  0.690106205269E-03  0.727453341088E-03  0.766826407795E-03  0.808335467649E-03
  0.852096539941E-03  0.898231918146E-03  0.946870503180E-03  0.998148153455E-03  0.105220805249E-02
  0.110920109482E-02  0.116928629100E-02  0.123263119244E-02  0.129941233697E-02  0.136981571586E-02
  0.144403726317E-02  0.152228336826E-02  0.160477141231E-02  0.169173032966E-02  0.178340119484E-02
  0.188003783608E-02  0.198190747615E-02  0.208929140127E-02  0.220248565892E-02  0.232180178515E-02
  0.244756756223E-02  0.258012780712E-02  0.271984519133E-02  0.286710109269E-02  0.302229647936E-02
  0.318585282634E-02  0.335821306460E-02  0.353984256277E-02  0.373123014131E-02  0.393288911864E-02
  0.414535838867E-02  0.436920352889E-02  0.460501793784E-02  0.485342400059E-02  0.511507428026E-02
  0.539065273363E-02  0.568087594801E-02  0.598649439635E-02  0.630829370699E-02  0.664709594383E-02
  0.700376089194E-02  0.737918734329E-02  0.777431437602E-02  0.819012262025E-02  0.862763550222E-02
  0.908792045773E-02  0.957209010465E-02  0.100813033631E-01  0.106167665109E-01  0.111797341592E-01
  0.117715101351E-01  0.123934482507E-01  0.130469529432E-01  0.137334797626E-01  0.144545356860E-01
  0.152116792328E-01  0.160065203544E-01  0.168407200681E-01  0.177159898042E-01  0.186340904310E-01
  0.195968309209E-01  0.206060666170E-01  0.216636970561E-01  0.227716633037E-01  0.239319447485E-01
  0.251465553057E-01  0.264175389707E-01  0.277469646643E-01  0.291369203049E-01  0.305895060413E-01
  0.321068265753E-01  0.336909824993E-01  0.353440605727E-01  0.370681228561E-01  0.388651946197E-01
  0.407372509413E-01  0.426862019051E-01  0.447138763117E-01  0.468220038105E-01  0.490121953620E-01
  0.512859219416E-01  0.536444913965E-01  0.560890233692E-01  0.586204222083E-01  0.612393477905E-01
  0.639461841854E-01  0.667410061068E-01  0.696235431013E-01  0.725931414453E-01  0.756487237324E-01
  0.787887461576E-01  0.820111535269E-01  0.853133320462E-01  0.886920599775E-01  0.921434562835E-01
  0.956629274224E-01  0.992451124978E-01  0.102883827020E+00  0.106572005587E+00  0.110301643845E+00
  0.114063740168E+00  0.117848237534E+00  0.121643966150E+00  0.125438587472E+00  0.129218540282E+00
  0.132968989606E+00  0.136673779325E+00  0.140315389421E+00  0.143874898937E+00  0.147331955868E+00
  0.150664755376E+00  0.153850027886E+00  0.156863038817E+00  0.159677601811E+00  0.162266107454E+00
  0.164599569507E+00  0.166647690712E+00  0.168378950163E+00  0.169760714254E+00  0.170759373116E+00
  0.171340504397E+00  0.171469066155E+00  0.171109620527E+00  0.170226589719E+00  0.168784545678E+00
  0.166748534624E+00  0.164084437310E+00  0.160759365549E+00  0.156742095106E+00  0.152003534559E+00
  0.146517229122E+00  0.140259897750E+00  0.133212001081E+00  0.125358336881E+00  0.116688658747E+00
  0.107198312771E+00  0.968888857665E-01  0.857688575201E-01  0.738542482991E-01  0.611692516487E-01
  0.477468412683E-01  0.336293395757E-01  0.188689344310E-01  0.352812946805E-02 -0.123198873863E-01
 -0.285909732599E-01 -0.451898739011E-01 -0.620101976772E-01 -0.789345355775E-01 -0.958347417465E-01
 -0.112572387904E+00 -0.128999404200E+00 -0.144958919022E+00 -0.160286310965E+00 -0.174810487003E+00
 -0.188355400414E+00 -0.200741818612E+00 -0.211789343047E+00 -0.221318671922E+00 -0.229154085516E+00
 -0.235126127581E+00 -0.239074453691E+00 -0.240850814550E+00 -0.240322136594E+00 -0.237373654958E+00
 -0.231912047195E+00 -0.223868511055E+00 -0.213201725564E+00 -0.199900631033E+00 -0.183986960116E+00
 -0.165517448936E+00 -0.144585655121E+00 -0.121323308917E+00 -0.959011249769E-01 -0.685290063926E-01
 -0.394555794197E-01 -0.896700704728E-02  0.226149579066E-01  0.549357038581E-01  0.876112784946E-01
  0.120232666355E+00  0.152370755729E+00  0.183581876547E+00  0.213413765418E+00  0.241411855288E+00
  0.267125920064E+00  0.290117258054E+00  0.309966546323E+00  0.326282108423E+00  0.338707991592E+00
  0.346931386513E+00  0.350689278566E+00  0.349774360143E+00  0.344040167094E+00  0.333405309748E+00
  0.317856638221E+00  0.297451216982E+00  0.272317050672E+00  0.242652565312E+00  0.208724889624E+00
  0.170867002012E+00  0.129473817858E+00  0.849972961387E-01  0.379406476016E-01 -0.111482685113E-01
 -0.616842649296E-01 -0.113052759205E+00 -0.164618200917E+00 -0.215732860567E+00 -0.265745833065E+00
 -0.314012094599E+00 -0.359901436562E+00 -0.402807080875E+00 -0.442153763767E+00 -0.477405075438E+00
 -0.508069898866E+00 -0.533707920142E+00 -0.553934349395E+00 -0.568424085782E+00 -0.576915471250E+00
 -0.579213541811E+00 -0.575192457483E+00 -0.564796751836E+00 -0.548041171014E+00 -0.525009054623E+00
 -0.495849341309E+00 -0.460772346175E+00 -0.420044482617E+00 -0.373982118457E+00 -0.322944769256E+00
 -0.267327843113E+00 -0.207555150995E+00 -0.144071387419E+00 -0.773347693555E-01 -0.780999604604E-02
  0.640383360784E-01  0.137751757060E+00  0.212883309398E+00  0.289002248540E+00  0.365698035155E+00
  0.442583621226E+00  0.519298052894E+00  0.595508431804E+00  0.670911292096E+00  0.745233462711E+00
  0.818232494242E+00  0.889696735085E+00  0.959445145218E+00  0.102732693499E+01  0.109322111483E+01
  0.115703603321E+01  0.121870897816E+01  0.127820590212E+01  0.133552132705E+01  0.139067846776E+01
  0.144372960470E+01  0.149475671942E+01  0.154387238569E+01  0.159122089598E+01  0.000000000000E+00
  0.000000000000E+00  0.000000000000E+00  0.000000000000E+00  0.000000000000E+00  0.000000000000E+00
  0.000000000000E+00  0.000000000000E+00  0.000000000000E+00  0.000000000000E+00  0.000000000000E+00
  0.000000000000E+00  0.000000000000E+00  0.000000000000E+00  0.000000000000E+00  0.000000000000E+00
  0.000000000000E+00  0.000000000000E+00  0.000000000000E+00  0.000000000000E+00  0.000000000000E+00
  0.000000000000E+00  0.000000000000E+00  0.000000000000E+00  0.000000000000E+00
 pseudo wavefunction
  0.959034468638E-08  0.102241935724E-07  0.108999350518E-07  0.116203379067E-07  0.123883539144E-07
  0.132071299426E-07  0.140800208426E-07  0.150106031963E-07  0.160026899702E-07  0.170603461390E-07
  0.181879053413E-07  0.193899876364E-07  0.206715184342E-07  0.220377486770E-07  0.234942763542E-07
  0.250470694400E-07  0.267024903463E-07  0.284673219918E-07  0.303487955950E-07  0.323546203028E-07
  0.344930147779E-07  0.367727408746E-07  0.392031395388E-07  0.417941690821E-07  0.445564459849E-07
  0.475012883961E-07  0.506407625084E-07  0.539877319981E-07  0.575559107328E-07  0.613599189624E-07
  0.654153432244E-07  0.697388002079E-07  0.743480048391E-07  0.792618428660E-07  0.845004482413E-07
  0.900852856188E-07  0.960392383030E-07  0.102386702011E-06  0.109153684832E-06  0.116367913791E-06
  0.124058948460E-06  0.132258302074E-06  0.140999570653E-06  0.150318570660E-06  0.160253485753E-06
  0.170845023241E-06  0.182136580876E-06  0.194174424672E-06  0.207007878476E-06  0.220689526068E-06
  0.235275426615E-06  0.250825344370E-06  0.267402993551E-06  0.285076299399E-06  0.303917676503E-06
  0.324004325505E-06  0.345418549421E-06  0.368248090879E-06  0.392586491623E-06  0.418533475802E-06
  0.446195358574E-06  0.475685481723E-06  0.507124678066E-06  0.540641766557E-06  0.576374080105E-06
  0.614468028286E-06  0.655079697242E-06  0.698375489228E-06  0.744532804428E-06  0.793740767840E-06
  0.846201004194E-06  0.902128464093E-06  0.961752304751E-06  0.102531682895E-05  0.109308248603E-05
  0.116532693908E-05  0.124234620263E-05  0.132445585553E-05  0.141199233404E-05  0.150531431029E-05
  0.160480416198E-05  0.171086953908E-05  0.182394503417E-05  0.194449396316E-05  0.207301026365E-05
  0.221002051882E-05  0.235608611509E-05  0.251180554229E-05  0.267781684600E-05  0.285480024185E-05
  0.304348090267E-05  0.324463192981E-05  0.345907752092E-05  0.368769634698E-05  0.393142515266E-05
  0.419126259453E-05  0.446827333302E-05  0.476359239477E-05  0.507842982342E-05  0.541407563759E-05
  0.577190511679E-05  0.615338443645E-05  0.656007667563E-05  0.699364822159E-05  0.745587559781E-05
  0.794865274324E-05  0.847399877267E-05  0.903406625000E-05  0.963115000840E-05  0.102676965533E-04
  0.109463140871E-04  0.116697831961E-04  0.124410682440E-04  0.132633295189E-04  0.141399361821E-04
  0.150744800734E-04  0.160707904295E-04  0.171329495739E-04  0.182653096445E-04  0.194725104274E-04
  0.207594983682E-04  0.221315468412E-04  0.235942777571E-04  0.251536846002E-04  0.268161569868E-04
  0.285885068488E-04  0.304779963457E-04  0.324923676238E-04  0.346398745407E-04  0.369293164879E-04
  0.393700744487E-04  0.419721494393E-04  0.447462034915E-04  0.477036033438E-04  0.508564670212E-04
  0.542177134938E-04  0.578011156177E-04  0.616213565765E-04  0.656940900527E-04  0.700360043779E-04
  0.746648909230E-04  0.795997170104E-04  0.848607036454E-04  0.904694083877E-04  0.964488137001E-04
  0.102823421140E-03  0.109619351778E-03  0.116864453252E-03  0.124588413909E-03  0.132822884480E-03
  0.141601607815E-03  0.150960557184E-03  0.160938083731E-03  0.171575073677E-03  0.182915115914E-03
  0.195004680693E-03  0.207893310115E-03  0.221633821234E-03  0.236282522585E-03  0.251899445038E-03
  0.268548587918E-03  0.286298181412E-03  0.305220966331E-03  0.325394492380E-03  0.346901436165E-03
  0.369829940239E-03  0.394273974589E-03  0.420333722035E-03  0.448115989144E-03  0.477734644342E-03
  0.509311085020E-03  0.542974735569E-03  0.578863578388E-03  0.617124720051E-03  0.657914994971E-03
  0.701401609044E-03  0.747762825930E-03  0.797188698800E-03  0.849881850571E-03  0.906058305848E-03
  0.965948378015E-03  0.102979761512E-02  0.109786780852E-02  0.117043806836E-02  0.124780597046E-02
  0.133028877926E-02  0.141822475197E-02  0.151197452924E-02  0.161192261825E-02  0.171847897424E-02
  0.183208068721E-02  0.195319378066E-02  0.208231512997E-02  0.221997450836E-02  0.236673676904E-02
  0.252320417256E-02  0.269001886920E-02  0.286786554675E-02  0.305747425480E-02  0.325962341740E-02
  0.347514304672E-02  0.370491817136E-02  0.394989249359E-02  0.421107229116E-02  0.448953058007E-02
  0.478641155599E-02  0.510293533314E-02  0.544040300090E-02  0.580020201953E-02  0.618381197823E-02
  0.659281073994E-02  0.702888099950E-02  0.749381728300E-02  0.798953341874E-02  0.851807051176E-02
  0.908160545653E-02  0.968246002451E-02  0.103231105661E-01  0.110061983687E-01  0.117345407169E-01
  0.125111427012E-01  0.133392098283E-01  0.142221614873E-01  0.151636453303E-01  0.161675526306E-01
  0.172380346840E-01  0.183795203271E-01  0.195967346458E-01  0.208947189567E-01  0.222788521468E-01
  0.237548734627E-01  0.253289068473E-01  0.270074869251E-01  0.287975867458E-01  0.307066473997E-01
  0.327426096251E-01  0.349139475334E-01  0.372297045824E-01  0.396995319341E-01  0.423337293354E-01
  0.451432886662E-01  0.481399402966E-01  0.513362024001E-01  0.547454333615E-01  0.583818874167E-01
  0.622607736496E-01  0.663983184573E-01  0.708118315749E-01  0.755197757200E-01  0.805418398835E-01
  0.858990162391E-01  0.916136805833E-01  0.977096761368E-01  0.104212400433E+00  0.111148894897E+00
  0.118547936559E+00  0.126440131148E+00  0.134858006583E+00  0.143836105588E+00  0.153411075794E+00
  0.163621755296E+00  0.174509251096E+00  0.186117007287E+00  0.198490859084E+00  0.211679067982E+00
  0.225732332289E+00  0.240703766122E+00  0.256648838554E+00  0.273625263018E+00  0.291692825207E+00
  0.310913135583E+00  0.331349290226E+00  0.353065420963E+00  0.376126112733E+00  0.400595662708E+00
  0.426537152047E+00  0.454011297168E+00  0.483075043301E+00  0.513779858771E+00  0.546169684311E+00
  0.580278487769E+00  0.616127371230E+00  0.653721175301E+00  0.693044524496E+00  0.734057259137E+00
  0.776689203741E+00  0.820834230594E+00  0.866343591361E+00  0.913018510793E+00  0.960602066455E+00
  0.100877041908E+01  0.105712351171E+01  0.110517542447E+01  0.115234465793E+01  0.119794472317E+01
  0.124117554248E+01  0.128111631117E+01  0.131672063638E+01  0.134681495042E+01  0.137010138506E+01
  0.138516647995E+01  0.139049726416E+01  0.138450637207E+01  0.136556790194E+01  0.133206565763E+01
  0.128245518284E+01  0.121534054933E+01  0.112956613619E+01  0.102432258026E+01  0.899264643756E+00
  0.754703995947E+00  0.591855438377E+00  0.412584552171E+00  0.219377583861E+00  0.000000000000E+00
  0.000000000000E+00  0.000000000000E+00  0.000000000000E+00  0.000000000000E+00  0.000000000000E+00
  0.000000000000E+00  0.000000000000E+00  0.000000000000E+00  0.000000000000E+00  0.000000000000E+00
  0.000000000000E+00  0.000000000000E+00  0.000000000000E+00  0.000000000000E+00  0.000000000000E+00
  0.000000000000E+00  0.000000000000E+00  0.000000000000E+00  0.000000000000E+00  0.000000000000E+00
  0.000000000000E+00  0.000000000000E+00  0.000000000000E+00  0.000000000000E+00
 ae wavefunction
  0.711601958589E-04  0.750668492181E-04  0.791800457993E-04  0.835111306261E-04  0.880720529712E-04
  0.928753996946E-04  0.979344303806E-04  0.103263114371E-03  0.108876169795E-03  0.114789104715E-03
  0.121018260496E-03  0.127580857527E-03  0.134495043425E-03  0.141779943860E-03  0.149455716135E-03
  0.157543605695E-03  0.166066005699E-03  0.175046519846E-03  0.184510028625E-03  0.194482759175E-03
  0.204992358957E-03  0.216067973444E-03  0.227740328052E-03  0.240041814539E-03  0.253006582122E-03
  0.266670633556E-03  0.281071926464E-03  0.296250480183E-03  0.312248488431E-03  0.329110438121E-03
  0.346883234627E-03  0.365616333876E-03  0.385361881606E-03  0.406174860201E-03  0.428113243473E-03
  0.451238159837E-03  0.475614064322E-03  0.501308919863E-03  0.528394388387E-03  0.556946032186E-03
  0.587043526125E-03  0.618770881236E-03  0.652216680298E-03  0.687474325998E-03  0.724642302347E-03
  0.763824449984E-03  0.805130256100E-03  0.848675159704E-03  0.894580872982E-03  0.942975719560E-03
  0.993994990489E-03  0.104778131881E-02  0.110448507361E-02  0.116426477444E-02  0.122728752712E-02
  0.129372948191E-02  0.136377631503E-02  0.143762373460E-02  0.151547801217E-02  0.159755654077E-02
  0.168408842090E-02  0.177531507537E-02  0.187149089436E-02  0.197288391183E-02  0.207977651465E-02
  0.219246618547E-02  0.231126628092E-02  0.243650684612E-02  0.256853546695E-02  0.270771816127E-02
  0.285444031041E-02  0.300910763208E-02  0.317214719593E-02  0.334400848298E-02  0.352516448985E-02
  0.371611287900E-02  0.391737717578E-02  0.412950801317E-02  0.435308442492E-02  0.458871518764E-02
  0.483704021221E-02  0.509873198469E-02  0.537449705677E-02  0.566507758536E-02  0.597125292075E-02
  0.629384124249E-02  0.663370124155E-02  0.699173384716E-02  0.736888399604E-02  0.776614244128E-02
  0.818454759766E-02  0.862518741922E-02  0.908920130459E-02  0.957778202440E-02  0.100921776645E-01
  0.106336935773E-01  0.112036943338E-01  0.118036056645E-01  0.124349163813E-01  0.130991802654E-01
  0.137980179090E-01  0.145331184945E-01  0.153062414943E-01  0.161192182720E-01  0.169739535633E-01
  0.178724268132E-01  0.188166933439E-01  0.198088853237E-01  0.208512125063E-01  0.219459627060E-01
  0.230955019704E-01  0.243022744101E-01  0.255688016409E-01  0.268976817889E-01  0.282915880077E-01
  0.297532664489E-01  0.312855336265E-01  0.328912731080E-01  0.345734314623E-01  0.363350133888E-01
  0.381790759463E-01  0.401087217964E-01  0.421270913702E-01  0.442373538606E-01  0.464426969395E-01
  0.487463150923E-01  0.511513964560E-01  0.536611080451E-01  0.562785792429E-01  0.590068834295E-01
  0.618490176206E-01  0.648078799785E-01  0.678862450645E-01  0.710867366911E-01  0.744117982400E-01
  0.778636603068E-01  0.814443055401E-01  0.851554305444E-01  0.889984047245E-01  0.929742259558E-01
  0.970834729791E-01  0.101326254430E+00  0.105702154436E+00  0.110210174723E+00  0.114848673222E+00
  0.119615299172E+00  0.124506924768E+00  0.129519573436E+00  0.134648344867E+00  0.139887336996E+00
  0.145229565167E+00  0.150666878809E+00  0.156189875993E+00  0.161787816348E+00  0.167448532898E+00
  0.173158343457E+00  0.178901962324E+00  0.184662413146E+00  0.190420943859E+00  0.196156944798E+00
  0.201847871109E+00  0.207469170779E+00  0.212994219724E+00  0.218394265558E+00  0.223638381915E+00
  0.228693435422E+00  0.233524067708E+00  0.238092695102E+00  0.242359528871E+00  0.246282619010E+00
  0.249817924679E+00  0.252919414394E+00  0.255539199041E+00  0.257627700751E+00  0.259133860539E+00
  0.260005387557E+00  0.260189052638E+00  0.259631028674E+00  0.258277280169E+00  0.256074004067E+00
  0.252968123635E+00  0.248907836725E+00  0.243843219254E+00  0.237726884053E+00  0.230514694484E+00
  0.222166531302E+00  0.212647110215E+00  0.201926846418E+00  0.189982761042E+00  0.176799423058E+00
  0.162369918563E+00  0.146696837732E+00  0.129793267933E+00  0.111683779673E+00  0.924053901762E-01
  0.720084875205E-01  0.505576964338E-01  0.281326651348E-01  0.482875101502E-02 -0.192424183641E-01
 -0.439525334649E-01 -0.691563651312E-01 -0.946917258866E-01 -0.120379653996E+00 -0.146024842528E+00
 -0.171416333920E+00 -0.196328499297E+00 -0.220522321817E+00 -0.243747004335E+00 -0.265741922942E+00
 -0.286238947217E+00 -0.304965142778E+00 -0.321645859589E+00 -0.336008192067E+00 -0.347784780384E+00
 -0.356717912666E+00 -0.362563883875E+00 -0.365097562615E+00 -0.364117108484E+00 -0.359448771364E+00
 -0.350951693808E+00 -0.338522629804E+00 -0.322100486854E+00 -0.301670592635E+00 -0.277268581992E+00
 -0.248983795103E+00 -0.216962074136E+00 -0.181407844533E+00 -0.142585369047E+00 -0.100819068553E+00
 -0.564928139870E-01 -0.100481084671E-01  0.380189023593E-01  0.871616298554E-01  0.136788458041E+00
  0.186269335284E+00  0.234943436621E+00  0.282127718080E+00  0.327126146188E+00  0.369239449620E+00
  0.407775442649E+00  0.442060201664E+00  0.471450292468E+00  0.495345649063E+00  0.513202179360E+00
  0.524543386250E+00  0.528970834479E+00  0.526173504740E+00  0.515935972470E+00  0.498145207055E+00
  0.472795740736E+00  0.439993010396E+00  0.399954776973E+00  0.353010620626E+00  0.299599570074E+00
  0.240265954797E+00  0.175653581506E+00  0.106498342007E+00  0.336193641330E-01 -0.420911755070E-01
 -0.119679446616E+00 -0.198142420986E+00 -0.276441220477E+00 -0.353515165013E+00 -0.428296304868E+00
 -0.499724198264E+00 -0.566760670516E+00 -0.628404260090E+00 -0.683704030680E+00 -0.731772431413E+00
 -0.771796976811E+00 -0.803050717090E+00 -0.824901715856E+00 -0.836821876065E+00 -0.838395294626E+00
 -0.829325952885E+00 -0.809444210960E+00 -0.778711532936E+00 -0.737223083407E+00 -0.685208119589E+00
 -0.623028300325E+00 -0.551174128567E+00 -0.470259781499E+00 -0.381016607424E+00 -0.284285585291E+00
 -0.181009052718E+00 -0.722219975224E-01  0.409568203630E-01  0.157333693879E+00  0.275648577093E+00
  0.394583379884E+00  0.512769923397E+00  0.628797608268E+00  0.741220923609E+00  0.848567002738E+00
  0.949343509133E+00  0.104204720880E+01  0.112517365576E+01  0.119722847788E+01  0.125674080168E+01
  0.130227939137E+01  0.133247209245E+01  0.134602916337E+01  0.134177103658E+01  0.131866097444E+01
  0.127584295531E+01  0.121268495386E+01  0.112882752723E+01  0.102423731343E+01  0.899264643756E+00
  0.754703995947E+00  0.591855438377E+00  0.412584552171E+00  0.219377583861E+00  0.000000000000E+00
  0.000000000000E+00  0.000000000000E+00  0.000000000000E+00  0.000000000000E+00  0.000000000000E+00
  0.000000000000E+00  0.000000000000E+00  0.000000000000E+00  0.000000000000E+00  0.000000000000E+00
  0.000000000000E+00  0.000000000000E+00  0.000000000000E+00  0.000000000000E+00  0.000000000000E+00
  0.000000000000E+00  0.000000000000E+00  0.000000000000E+00  0.000000000000E+00  0.000000000000E+00
  0.000000000000E+00  0.000000000000E+00  0.000000000000E+00  0.000000000000E+00
 End of Dataset
  PAW_PBE Mo 08Apr2002                   
   6.00000000000000     
 parameters from PSCTR are:
   VRHFIN =Mo: 4p5s4d
   LEXCH  = PE
   EATOM  =   217.5176 eV,   15.9871 Ry

   TITEL  = PAW_PBE Mo 08Apr2002
   LULTRA =        F    use ultrasoft PP ?
   IUNSCR =        1    unscreen: 0-lin 1-nonlin 2-no
   RPACOR =    2.200    partial core radius
   POMASS =   95.940; ZVAL   =    6.000    mass and valenz
   RCORE  =    2.750    outmost cutoff radius
   RWIGS  =    2.750; RWIGS  =    1.455    wigner-seitz radius (au A)
   ENMAX  =  224.584; ENMIN  =  168.438 eV
   RCLOC  =    2.111    cutoff for local pot
   LCOR   =        T    correct aug charges
   LPAW   =        T    paw PP
   EAUG   =  345.278
   DEXC   =    0.000
   RMAX   =    2.821    core radius for proj-oper
   RAUG   =    1.300    factor for augmentation sphere
   RDEP   =    2.815    radius for radial grids
   RDEPT  =    2.211    core radius for aug-charge
 
   Atomic configuration
   12 entries
     n  l   j            E        occ.
     1  0  0.50    -19819.0341   2.0000
     2  0  0.50     -2799.0127   2.0000
     2  1  1.50     -2502.0276   6.0000
     3  0  0.50      -476.4448   2.0000
     3  1  1.50      -379.1496   6.0000
     3  2  2.50      -220.9367  10.0000
     4  0  0.50       -64.3378   2.0000
     4  1  1.50       -38.4773   6.0000
     4  2  2.50        -3.7535   5.0000
     5  0  0.50        -4.0862   1.0000
     5  1  0.50        -2.7701   0.0000
     4  3  2.50        -1.3606   0.0000
   Description
     l       E           TYP  RCUT    TYP  RCUT
     2     -3.7534765     23  2.500
     2     -5.1140591     23  2.500
     0     -4.0861560     23  2.600
     0     13.6058260     23  2.600
     1      5.4423304     23  2.750
     1     27.2116520     23  2.750
   Error from kinetic energy argument (eV)
   NDATA  =      100
   STEP   =   20.000   1.050
  101.      99.1      97.9      95.5      94.2      91.5      88.8      87.4
  84.5      81.6      80.1      77.1      74.0      70.9      67.8      64.8
  61.7      58.6      55.6      51.1      48.2      45.4      41.3      38.6
  36.0      32.3      28.9      26.7      23.6      20.7      18.0      15.6
  13.5      11.5      9.74      8.18      6.41      5.27      4.01      3.22
  2.37      1.70      1.19     0.811     0.537     0.345     0.214     0.114
 0.684E-01 0.390E-01 0.272E-01 0.241E-01 0.235E-01 0.233E-01 0.217E-01 0.191E-01
 0.158E-01 0.116E-01 0.786E-02 0.513E-02 0.345E-02 0.262E-02 0.234E-02 0.229E-02
 0.225E-02 0.205E-02 0.170E-02 0.128E-02 0.866E-03 0.624E-03 0.492E-03 0.460E-03
 0.455E-03 0.426E-03 0.352E-03 0.269E-03 0.191E-03 0.147E-03 0.135E-03 0.133E-03
 0.123E-03 0.990E-04 0.729E-04 0.548E-04 0.499E-04 0.493E-04 0.445E-04 0.342E-04
 0.253E-04 0.220E-04 0.217E-04 0.198E-04 0.150E-04 0.116E-04 0.107E-04 0.104E-04
 0.848E-05 0.649E-05 0.579E-05 0.565E-05
END of PSCTR-controll parameters
 local part
   68.0301355888413     
  0.11440305E+03  0.11438308E+03  0.11432327E+03  0.11422366E+03  0.11408436E+03
  0.11390549E+03  0.11368725E+03  0.11342985E+03  0.11313353E+03  0.11279857E+03
  0.11242530E+03  0.11201403E+03  0.11156515E+03  0.11107904E+03  0.11055613E+03
  0.10999688E+03  0.10940175E+03  0.10877128E+03  0.10810599E+03  0.10740648E+03
  0.10667335E+03  0.10590726E+03  0.10510889E+03  0.10427897E+03  0.10341827E+03
  0.10252757E+03  0.10160770E+03  0.10065954E+03  0.99683979E+02  0.98681942E+02
  0.97654385E+02  0.96602289E+02  0.95526664E+02  0.94428540E+02  0.93308973E+02
  0.92169036E+02  0.91009828E+02  0.89832464E+02  0.88638076E+02  0.87427815E+02
  0.86202844E+02  0.84964342E+02  0.83713497E+02  0.82451507E+02  0.81179577E+02
  0.79898916E+02  0.78610734E+02  0.77316244E+02  0.76016652E+02  0.74713161E+02
  0.73406967E+02  0.72099255E+02  0.70791197E+02  0.69483954E+02  0.68178668E+02
  0.66876464E+02  0.65578449E+02  0.64285706E+02  0.62999295E+02  0.61720251E+02
  0.60449582E+02  0.59188267E+02  0.57937253E+02  0.56697457E+02  0.55469759E+02
  0.54255008E+02  0.53054012E+02  0.51867545E+02  0.50696339E+02  0.49541089E+02
  0.48402448E+02  0.47281029E+02  0.46177405E+02  0.45092104E+02  0.44025617E+02
  0.42978389E+02  0.41950824E+02  0.40943286E+02  0.39956094E+02  0.38989528E+02
  0.38043826E+02  0.37119185E+02  0.36215759E+02  0.35333667E+02  0.34472985E+02
  0.33633751E+02  0.32815969E+02  0.32019603E+02  0.31244585E+02  0.30490811E+02
  0.29758145E+02  0.29046420E+02  0.28355440E+02  0.27684980E+02  0.27034788E+02
  0.26404584E+02  0.25794068E+02  0.25202915E+02  0.24630779E+02  0.24077294E+02
  0.23542076E+02  0.23024724E+02  0.22524824E+02  0.22041947E+02  0.21575651E+02
  0.21125487E+02  0.20690994E+02  0.20271705E+02  0.19867149E+02  0.19476849E+02
  0.19100326E+02  0.18737098E+02  0.18386685E+02  0.18048607E+02  0.17722386E+02
  0.17407548E+02  0.17103623E+02  0.16810146E+02  0.16526661E+02  0.16252715E+02
  0.15987868E+02  0.15731686E+02  0.15483747E+02  0.15243640E+02  0.15010962E+02
  0.14785327E+02  0.14566358E+02  0.14353692E+02  0.14146979E+02  0.13945884E+02
  0.13750085E+02  0.13559272E+02  0.13373154E+02  0.13191449E+02  0.13013893E+02
  0.12840235E+02  0.12670237E+02  0.12503678E+02  0.12340349E+02  0.12180055E+02
  0.12022616E+02  0.11867863E+02  0.11715642E+02  0.11565812E+02  0.11418243E+02
  0.11272816E+02  0.11129428E+02  0.10987981E+02  0.10848393E+02  0.10710587E+02
  0.10574499E+02  0.10440074E+02  0.10307262E+02  0.10176025E+02  0.10046329E+02
  0.99181507E+01  0.97914694E+01  0.96662722E+01  0.95425512E+01  0.94203032E+01
  0.92995293E+01  0.91802345E+01  0.90624268E+01  0.89461172E+01  0.88313188E+01
  0.87180465E+01  0.86063166E+01  0.84961465E+01  0.83875540E+01  0.82805571E+01
  0.81751737E+01  0.80714212E+01  0.79693165E+01  0.78688751E+01  0.77701117E+01
  0.76730392E+01  0.75776689E+01  0.74840104E+01  0.73920710E+01  0.73018559E+01
  0.72133680E+01  0.71266077E+01  0.70415729E+01  0.69582588E+01  0.68766581E+01
  0.67967608E+01  0.67185544E+01  0.66420236E+01  0.65671507E+01  0.64939156E+01
  0.64222957E+01  0.63522662E+01  0.62838000E+01  0.62168680E+01  0.61514392E+01
  0.60874806E+01  0.60249575E+01  0.59638337E+01  0.59040715E+01  0.58456319E+01
  0.57884745E+01  0.57325584E+01  0.56778415E+01  0.56242812E+01  0.55718344E+01
  0.55204577E+01  0.54701076E+01  0.54207406E+01  0.53723135E+01  0.53247833E+01
  0.52781078E+01  0.52322450E+01  0.51871540E+01  0.51427947E+01  0.50991278E+01
  0.50561153E+01  0.50137202E+01  0.49719070E+01  0.49306414E+01  0.48898906E+01
  0.48496232E+01  0.48098097E+01  0.47704220E+01  0.47314338E+01  0.46928205E+01
  0.46545593E+01  0.46166293E+01  0.45790112E+01  0.45416875E+01  0.45046427E+01
  0.44678626E+01  0.44313351E+01  0.43950495E+01  0.43589968E+01  0.43231695E+01
  0.42875618E+01  0.42521690E+01  0.42169882E+01  0.41820176E+01  0.41472567E+01
  0.41127064E+01  0.40783686E+01  0.40442461E+01  0.40103429E+01  0.39766637E+01
  0.39432143E+01  0.39100007E+01  0.38770298E+01  0.38443090E+01  0.38118459E+01
  0.37796487E+01  0.37477255E+01  0.37160848E+01  0.36847351E+01  0.36536849E+01
  0.36229426E+01  0.35925165E+01  0.35624148E+01  0.35326453E+01  0.35032156E+01
  0.34741327E+01  0.34454035E+01  0.34170342E+01  0.33890304E+01  0.33613972E+01
  0.33341392E+01  0.33072600E+01  0.32807628E+01  0.32546501E+01  0.32289234E+01
  0.32035837E+01  0.31786314E+01  0.31540659E+01  0.31298860E+01  0.31060898E+01
  0.30826749E+01  0.30596378E+01  0.30369748E+01  0.30146812E+01  0.29927518E+01
  0.29711809E+01  0.29499619E+01  0.29290881E+01  0.29085519E+01  0.28883453E+01
  0.28684600E+01  0.28488873E+01  0.28296179E+01  0.28106425E+01  0.27919514E+01
  0.27735347E+01  0.27553825E+01  0.27374845E+01  0.27198307E+01  0.27024108E+01
  0.26852146E+01  0.26682319E+01  0.26514527E+01  0.26348670E+01  0.26184649E+01
  0.26022370E+01  0.25861738E+01  0.25702662E+01  0.25545053E+01  0.25388828E+01
  0.25233905E+01  0.25080207E+01  0.24927661E+01  0.24776198E+01  0.24625755E+01
  0.24476271E+01  0.24327694E+01  0.24179971E+01  0.24033059E+01  0.23886917E+01
  0.23741508E+01  0.23596802E+01  0.23452773E+01  0.23309398E+01  0.23166660E+01
  0.23024547E+01  0.22883049E+01  0.22742164E+01  0.22601890E+01  0.22462232E+01
  0.22323198E+01  0.22184798E+01  0.22047048E+01  0.21909965E+01  0.21773570E+01
  0.21637884E+01  0.21502932E+01  0.21368742E+01  0.21235340E+01  0.21102756E+01
  0.20971021E+01  0.20840165E+01  0.20710219E+01  0.20581216E+01  0.20453187E+01
  0.20326164E+01  0.20200179E+01  0.20075262E+01  0.19951442E+01  0.19828749E+01
  0.19707209E+01  0.19586849E+01  0.19467691E+01  0.19349757E+01  0.19233068E+01
  0.19117638E+01  0.19003485E+01  0.18890619E+01  0.18779050E+01  0.18668786E+01
  0.18559830E+01  0.18452185E+01  0.18345851E+01  0.18240824E+01  0.18137097E+01
  0.18034664E+01  0.17933514E+01  0.17833632E+01  0.17735002E+01  0.17637608E+01
  0.17541428E+01  0.17446439E+01  0.17352617E+01  0.17259934E+01  0.17168363E+01
  0.17077874E+01  0.16988434E+01  0.16900013E+01  0.16812575E+01  0.16726088E+01
  0.16640517E+01  0.16555826E+01  0.16471980E+01  0.16388943E+01  0.16306681E+01
  0.16225156E+01  0.16144335E+01  0.16064181E+01  0.15984663E+01  0.15905745E+01
  0.15827396E+01  0.15749584E+01  0.15672279E+01  0.15595453E+01  0.15519079E+01
  0.15443131E+01  0.15367585E+01  0.15292421E+01  0.15217617E+01  0.15143157E+01
  0.15069023E+01  0.14995201E+01  0.14921679E+01  0.14848446E+01  0.14775493E+01
  0.14702814E+01  0.14630403E+01  0.14558257E+01  0.14486374E+01  0.14414755E+01
  0.14343401E+01  0.14272317E+01  0.14201507E+01  0.14130978E+01  0.14060738E+01
  0.13990796E+01  0.13921163E+01  0.13851849E+01  0.13782867E+01  0.13714229E+01
  0.13645948E+01  0.13578039E+01  0.13510515E+01  0.13443389E+01  0.13376676E+01
  0.13310390E+01  0.13244546E+01  0.13179156E+01  0.13114234E+01  0.13049793E+01
  0.12985846E+01  0.12922405E+01  0.12859481E+01  0.12797083E+01  0.12735222E+01
  0.12673905E+01  0.12613140E+01  0.12552933E+01  0.12493288E+01  0.12434209E+01
  0.12375698E+01  0.12317756E+01  0.12260384E+01  0.12203579E+01  0.12147339E+01
  0.12091662E+01  0.12036541E+01  0.11981971E+01  0.11927945E+01  0.11874456E+01
  0.11821494E+01  0.11769050E+01  0.11717112E+01  0.11665669E+01  0.11614708E+01
  0.11564216E+01  0.11514178E+01  0.11464582E+01  0.11415411E+01  0.11366651E+01
  0.11318286E+01  0.11270301E+01  0.11222681E+01  0.11175411E+01  0.11128475E+01
  0.11081858E+01  0.11035547E+01  0.10989525E+01  0.10943781E+01  0.10898299E+01
  0.10853068E+01  0.10808075E+01  0.10763307E+01  0.10718755E+01  0.10674407E+01
  0.10630254E+01  0.10586288E+01  0.10542500E+01  0.10498885E+01  0.10455436E+01
  0.10412148E+01  0.10369018E+01  0.10326043E+01  0.10283220E+01  0.10240548E+01
  0.10198027E+01  0.10155657E+01  0.10113439E+01  0.10071375E+01  0.10029466E+01
  0.99877162E+00  0.99461290E+00  0.99047084E+00  0.98634592E+00  0.98223866E+00
  0.97814963E+00  0.97407943E+00  0.97002867E+00  0.96599802E+00  0.96198813E+00
  0.95799967E+00  0.95403329E+00  0.95008964E+00  0.94616936E+00  0.94227304E+00
  0.93840128E+00  0.93455461E+00  0.93073356E+00  0.92693861E+00  0.92317018E+00
  0.91942870E+00  0.91571451E+00  0.91202791E+00  0.90836918E+00  0.90473851E+00
  0.90113606E+00  0.89756190E+00  0.89401607E+00  0.89049853E+00  0.88700916E+00
  0.88354781E+00  0.88011424E+00  0.87670816E+00  0.87332923E+00  0.86997707E+00
  0.86665122E+00  0.86335121E+00  0.86007651E+00  0.85682659E+00  0.85360084E+00
  0.85039867E+00  0.84721944E+00  0.84406250E+00  0.84092716E+00  0.83781273E+00
  0.83471851E+00  0.83164379E+00  0.82858784E+00  0.82554996E+00  0.82252943E+00
  0.81952556E+00  0.81653767E+00  0.81356511E+00  0.81060727E+00  0.80766355E+00
  0.80473340E+00  0.80181631E+00  0.79891182E+00  0.79601947E+00  0.79313889E+00
  0.79026971E+00  0.78741163E+00  0.78456437E+00  0.78172770E+00  0.77890142E+00
  0.77608540E+00  0.77327952E+00  0.77048372E+00  0.76769799E+00  0.76492235E+00
  0.76215687E+00  0.75940167E+00  0.75665690E+00  0.75392273E+00  0.75119939E+00
  0.74848712E+00  0.74578618E+00  0.74309684E+00  0.74041941E+00  0.73775417E+00
  0.73510145E+00  0.73246153E+00  0.72983474E+00  0.72722138E+00  0.72462176E+00
  0.72203617E+00  0.71946490E+00  0.71690825E+00  0.71436648E+00  0.71183983E+00
  0.70932855E+00  0.70683285E+00  0.70435290E+00  0.70188887E+00  0.69944086E+00
  0.69700897E+00  0.69459324E+00  0.69219368E+00  0.68981026E+00  0.68744294E+00
  0.68509161E+00  0.68275615E+00  0.68043641E+00  0.67813221E+00  0.67584334E+00
  0.67356957E+00  0.67131064E+00  0.66906628E+00  0.66683618E+00  0.66462001E+00
  0.66241742E+00  0.66022806E+00  0.65805152E+00  0.65588741E+00  0.65373533E+00
  0.65159485E+00  0.64946554E+00  0.64734700E+00  0.64523881E+00  0.64314055E+00
  0.64105185E+00  0.63897231E+00  0.63690159E+00  0.63483933E+00  0.63278521E+00
  0.63073894E+00  0.62870022E+00  0.62666880E+00  0.62464443E+00  0.62262691E+00
  0.62061603E+00  0.61861164E+00  0.61661359E+00  0.61462179E+00  0.61263615E+00
  0.61065664E+00  0.60868324E+00  0.60671598E+00  0.60475491E+00  0.60280012E+00
  0.60085172E+00  0.59890984E+00  0.59697465E+00  0.59504633E+00  0.59312505E+00
  0.59121104E+00  0.58930451E+00  0.58740568E+00  0.58551479E+00  0.58363209E+00
  0.58175781E+00  0.57989223E+00  0.57803559E+00  0.57618815E+00  0.57435016E+00
  0.57252187E+00  0.57070354E+00  0.56889538E+00  0.56709761E+00  0.56531044E+00
  0.56353403E+00  0.56176855E+00  0.56001412E+00  0.55827084E+00  0.55653878E+00
  0.55481801E+00  0.55310853E+00  0.55141035E+00  0.54972344E+00  0.54804774E+00
  0.54638318E+00  0.54472966E+00  0.54308705E+00  0.54145521E+00  0.53983396E+00
  0.53822309E+00  0.53662240E+00  0.53503161E+00  0.53345048E+00  0.53187869E+00
  0.53031595E+00  0.52876192E+00  0.52721627E+00  0.52567865E+00  0.52414870E+00
  0.52262607E+00  0.52111040E+00  0.51960133E+00  0.51809853E+00  0.51660165E+00
  0.51511036E+00  0.51362433E+00  0.51214324E+00  0.51066680E+00  0.50919471E+00
  0.50772671E+00  0.50626252E+00  0.50480191E+00  0.50334465E+00  0.50189057E+00
  0.50043947E+00  0.49899124E+00  0.49754574E+00  0.49610291E+00  0.49466269E+00
  0.49322505E+00  0.49179001E+00  0.49035761E+00  0.48892789E+00  0.48750096E+00
  0.48607691E+00  0.48465587E+00  0.48323800E+00  0.48182347E+00  0.48041246E+00
  0.47900518E+00  0.47760184E+00  0.47620269E+00  0.47480798E+00  0.47341798E+00
  0.47203296E+00  0.47065321E+00  0.46927901E+00  0.46791067E+00  0.46654847E+00
  0.46519271E+00  0.46384364E+00  0.46250156E+00  0.46116671E+00  0.45983933E+00
  0.45851965E+00  0.45720787E+00  0.45590418E+00  0.45460876E+00  0.45332175E+00
  0.45204328E+00  0.45077347E+00  0.44951240E+00  0.44826013E+00  0.44701672E+00
  0.44578216E+00  0.44455646E+00  0.44333956E+00  0.44213140E+00  0.44093188E+00
  0.43974087E+00  0.43855821E+00  0.43738373E+00  0.43621722E+00  0.43505846E+00
  0.43390720E+00  0.43276318E+00  0.43162613E+00  0.43049576E+00  0.42937176E+00
  0.42825384E+00  0.42714167E+00  0.42603493E+00  0.42493329E+00  0.42383641E+00
  0.42274396E+00  0.42165559E+00  0.42057098E+00  0.41948979E+00  0.41841168E+00
  0.41733636E+00  0.41626351E+00  0.41519284E+00  0.41412410E+00  0.41305703E+00
  0.41199141E+00  0.41092704E+00  0.40986373E+00  0.40880133E+00  0.40773970E+00
  0.40667874E+00  0.40561837E+00  0.40455852E+00  0.40349915E+00  0.40244024E+00
  0.40138182E+00  0.40032391E+00  0.39926657E+00  0.39820989E+00  0.39715398E+00
  0.39609898E+00  0.39504504E+00  0.39399236E+00  0.39294113E+00  0.39189157E+00
  0.39084393E+00  0.38979845E+00  0.38875539E+00  0.38771501E+00  0.38667760E+00
  0.38564342E+00  0.38461275E+00  0.38358588E+00  0.38256307E+00  0.38154461E+00
  0.38053076E+00  0.37952179E+00  0.37851796E+00  0.37751952E+00  0.37652672E+00
  0.37553978E+00  0.37455891E+00  0.37358431E+00  0.37261616E+00  0.37165460E+00
  0.37069976E+00  0.36975175E+00  0.36881065E+00  0.36787651E+00  0.36694937E+00
  0.36602922E+00  0.36511605E+00  0.36420982E+00  0.36331047E+00  0.36241791E+00
  0.36153204E+00  0.36065273E+00  0.35977984E+00  0.35891319E+00  0.35805260E+00
  0.35719786E+00  0.35634876E+00  0.35550503E+00  0.35466643E+00  0.35383268E+00
  0.35300350E+00  0.35217860E+00  0.35135767E+00  0.35054041E+00  0.34972653E+00
  0.34891573E+00  0.34810770E+00  0.34730215E+00  0.34649880E+00  0.34569738E+00
  0.34489761E+00  0.34409923E+00  0.34330200E+00  0.34250568E+00  0.34171005E+00
  0.34091489E+00  0.34012003E+00  0.33932527E+00  0.33853048E+00  0.33773552E+00
  0.33694028E+00  0.33614468E+00  0.33534866E+00  0.33455218E+00  0.33375523E+00
  0.33295783E+00  0.33216001E+00  0.33136182E+00  0.33056336E+00  0.32976470E+00
  0.32896597E+00  0.32816729E+00  0.32736882E+00  0.32657072E+00  0.32577315E+00
  0.32497632E+00  0.32418043E+00  0.32338570E+00  0.32259236E+00  0.32180064E+00
  0.32101080E+00  0.32022307E+00  0.31943773E+00  0.31865502E+00  0.31787519E+00
  0.31709849E+00  0.31632517E+00  0.31555545E+00  0.31478956E+00  0.31402771E+00
  0.31327010E+00  0.31251691E+00  0.31176832E+00  0.31102448E+00  0.31028555E+00
  0.30955165E+00  0.30882290E+00  0.30809938E+00  0.30738119E+00  0.30666837E+00
  0.30596096E+00  0.30525899E+00  0.30456244E+00  0.30387128E+00  0.30318546E+00
  0.30250492E+00  0.30182956E+00  0.30115926E+00  0.30049390E+00  0.29983334E+00
  0.29917740E+00  0.29852593E+00  0.29787874E+00  0.29723562E+00  0.29659639E+00
  0.29596081E+00  0.29532868E+00  0.29469975E+00  0.29407380E+00  0.29345058E+00
  0.29282985E+00  0.29221135E+00  0.29159485E+00  0.29098009E+00  0.29036684E+00
  0.28975485E+00  0.28914390E+00  0.28853379E+00  0.28792429E+00  0.28731522E+00
  0.28670641E+00  0.28609769E+00  0.28548891E+00  0.28487994E+00  0.28427067E+00
  0.28366098E+00  0.28305080E+00  0.28244005E+00  0.28182867E+00  0.28121664E+00
  0.28060393E+00  0.27999055E+00  0.27937650E+00  0.27876182E+00  0.27814658E+00
  0.27753085E+00  0.27691471E+00  0.27629828E+00  0.27568168E+00  0.27506505E+00
  0.27444853E+00  0.27383229E+00  0.27321649E+00  0.27260130E+00  0.27198692E+00
  0.27137351E+00  0.27076127E+00  0.27015040E+00  0.26954108E+00  0.26893352E+00
  0.26832791E+00  0.26772444E+00  0.26712332E+00  0.26652473E+00  0.26592887E+00
  0.26533590E+00  0.26474600E+00  0.26415933E+00  0.26357604E+00  0.26299626E+00
  0.26242012E+00  0.26184771E+00  0.26127913E+00  0.26071446E+00  0.26015374E+00
  0.25959704E+00  0.25904438E+00  0.25849578E+00  0.25795123E+00  0.25741074E+00
  0.25687427E+00  0.25634178E+00  0.25581321E+00  0.25528851E+00  0.25476757E+00
  0.25425030E+00  0.25373658E+00  0.25322629E+00  0.25271929E+00  0.25221542E+00
  0.25171452E+00  0.25121642E+00  0.25072096E+00  0.25022795E+00  0.24973721E+00
  0.24924856E+00  0.24876182E+00  0.24827680E+00  0.24779333E+00  0.24731122E+00
  0.24683029E+00  0.24635037E+00  0.24587129E+00  0.24539287E+00  0.24491497E+00
  0.24443742E+00  0.24396008E+00  0.24348281E+00  0.24300549E+00  0.24252800E+00
  0.24205025E+00  0.24157216E+00  0.24109365E+00  0.24061466E+00  0.24013517E+00
  0.23965513E+00  0.23917454E+00  0.23869340E+00  0.23821171E+00  0.23772950E+00
  0.23724679E+00  0.23676365E+00  0.23628012E+00  0.23579628E+00  0.23531220E+00
 gradient corrections used for XC
           5
 core charge-density (partial)
  0.53057449E+01  0.53036235E+01  0.52972644E+01  0.52866828E+01  0.52719041E+01
  0.52529634E+01  0.52299059E+01  0.52027863E+01  0.51716687E+01  0.51366264E+01
  0.50977415E+01  0.50551045E+01  0.50088141E+01  0.49589769E+01  0.49057065E+01
  0.48491236E+01  0.47893550E+01  0.47265337E+01  0.46607979E+01  0.45922906E+01
  0.45211592E+01  0.44475549E+01  0.43716320E+01  0.42935478E+01  0.42134613E+01
  0.41315335E+01  0.40479261E+01  0.39628017E+01  0.38763227E+01  0.37886511E+01
  0.36999478E+01  0.36103726E+01  0.35200830E+01  0.34292344E+01  0.33379796E+01
  0.32464681E+01  0.31548460E+01  0.30632557E+01  0.29718354E+01  0.28807188E+01
  0.27900353E+01  0.26999091E+01  0.26104595E+01  0.25218004E+01  0.24340404E+01
  0.23472826E+01  0.22616243E+01  0.21771574E+01  0.20939676E+01  0.20121351E+01
  0.19317343E+01  0.18528337E+01  0.17754959E+01  0.16997781E+01  0.16257317E+01
  0.15534024E+01  0.14828306E+01  0.14140513E+01  0.13470943E+01  0.12819842E+01
  0.12187409E+01  0.11573793E+01  0.10979096E+01  0.10403379E+01  0.98466581E+00
  0.93089084E+00  0.87900671E+00  0.82900342E+00  0.78086749E+00  0.73458211E+00
  0.69012742E+00  0.64748061E+00  0.60661620E+00  0.56750621E+00  0.53012033E+00
  0.49442614E+00  0.46038930E+00  0.42797369E+00  0.39714167E+00  0.36785419E+00
  0.34007097E+00  0.31375070E+00  0.28885117E+00  0.26532944E+00  0.24314197E+00
  0.22224479E+00  0.20259363E+00  0.18414401E+00  0.16685142E+00  0.15067142E+00
  0.13555973E+00  0.12147234E+00  0.10836563E+00  0.96196457E-01  0.84922201E-01
  0.74500891E-01  0.64891252E-01  0.56052779E-01  0.47945794E-01  0.40531504E-01
  0.33772044E-01  0.27630526E-01  0.22071075E-01  0.17058861E-01  0.12560127E-01
  0.85422138E-02  0.49735770E-02  0.18238022E-02 -0.93638528E-03 -0.33351136E-02
 -0.53993624E-02 -0.71549631E-02 -0.86266039E-02 -0.98378363E-02 -0.10811086E-01
 -0.11567665E-01 -0.12127789E-01 -0.12510592E-01 -0.12734148E-01 -0.12815494E-01
 -0.12770650E-01 -0.12614647E-01 -0.12361552E-01 -0.12024498E-01 -0.11615707E-01
 -0.11146527E-01 -0.10627458E-01 -0.10068182E-01 -0.94776001E-02 -0.88638572E-02
 -0.82343793E-02 -0.75959040E-02 -0.69545125E-02 -0.63156622E-02 -0.56842185E-02
 -0.50644866E-02 -0.44602427E-02 -0.38747646E-02 -0.33108627E-02 -0.27709093E-02
 -0.22568676E-02 -0.17703206E-02 -0.13124984E-02 -0.88430505E-03 -0.48634491E-03
 -0.11894750E-03  0.21780806E-03  0.52406973E-03  0.80019015E-03  0.10467052E-02
  0.12643133E-02  0.14538564E-02  0.16163008E-02  0.17527200E-02  0.18642780E-02
  0.19522139E-02  0.20178266E-02  0.20624619E-02  0.20874993E-02  0.20943402E-02
  0.20843968E-02  0.20590822E-02  0.20198013E-02  0.19679421E-02  0.19048681E-02
  0.18319119E-02  0.17503685E-02  0.16614905E-02  0.15664830E-02  0.14664999E-02
  0.13626404E-02  0.12559460E-02  0.11473987E-02  0.10379188E-02  0.92836414E-03
  0.81952894E-03  0.71214384E-03  0.60687578E-03  0.50432856E-03  0.40504360E-03
  0.30950109E-03  0.21812135E-03  0.13126651E-03  0.49242409E-04 -0.27699388E-04
 -0.99359281E-04 -0.16558726E-03 -0.22628035E-03 -0.28138004E-03 -0.33086949E-03
 -0.37477082E-03 -0.41314230E-03 -0.44607546E-03 -0.47369230E-03 -0.49614246E-03
 -0.51360038E-03 -0.52626257E-03 -0.53434489E-03 -0.53807990E-03 -0.53771429E-03
 -0.53350638E-03 -0.52572374E-03 -0.51464090E-03 -0.50053714E-03 -0.48369441E-03
 -0.46439539E-03 -0.44292166E-03 -0.41955192E-03 -0.39456047E-03 -0.36821571E-03
 -0.34077877E-03 -0.31250235E-03 -0.28362962E-03 -0.25439320E-03 -0.22501439E-03
 -0.19570240E-03 -0.16665377E-03 -0.13805186E-03 -0.11006644E-03 -0.82853475E-04
 -0.56554880E-04 -0.31298465E-04 -0.71979353E-05  0.15647024E-04  0.37150573E-04
  0.57240477E-04  0.75857796E-04  0.92956507E-04  0.10850308E-03  0.12247597E-03
  0.13486514E-03  0.14567144E-03  0.15490602E-03  0.16258973E-03  0.16875240E-03
  0.17343222E-03  0.17667504E-03  0.17853365E-03  0.17906710E-03  0.17833997E-03
  0.17642171E-03  0.17338591E-03  0.16930964E-03  0.16427279E-03  0.15835739E-03
  0.15164703E-03  0.14422620E-03  0.13617976E-03  0.12759236E-03  0.11854793E-03
  0.10912917E-03  0.99417126E-04  0.89490733E-04  0.79426436E-04  0.69297828E-04
  0.59175334E-04  0.49125920E-04  0.39212843E-04  0.29495431E-04  0.20028907E-04
  0.10864233E-04  0.20480014E-05 -0.63776530E-05 -0.14375103E-04 -0.21911252E-04
 -0.28957528E-04 -0.35489848E-04 -0.41488560E-04 -0.46938362E-04 -0.51828191E-04
 -0.56151099E-04 -0.59904106E-04 -0.63088038E-04 -0.65707345E-04 -0.67769910E-04
 -0.69286844E-04 -0.70272269E-04 -0.70743095E-04 -0.70718789E-04 -0.70221136E-04
 -0.69274006E-04 -0.67903105E-04 -0.66135736E-04 -0.64000558E-04 -0.61527346E-04
 -0.58746758E-04 -0.55690099E-04 -0.52389106E-04 -0.48875721E-04 -0.45181889E-04
 -0.41339354E-04 -0.37379472E-04 -0.33333028E-04 -0.29230070E-04 -0.25099750E-04
 -0.20970180E-04 -0.16868301E-04 -0.12819761E-04 -0.88488101E-05 -0.49782044E-05
 -0.12291281E-05  0.23788762E-05  0.58279621E-05  0.91020215E-05  0.12186715E-04
  0.15069490E-04  0.17739586E-04  0.20188031E-04  0.22407625E-04  0.24392915E-04
  0.26140158E-04  0.27647278E-04  0.28913814E-04  0.29940854E-04  0.30730975E-04
  0.31288162E-04  0.31617732E-04  0.31726247E-04  0.31621424E-04  0.31312046E-04
  0.30807863E-04  0.30119493E-04  0.29258325E-04  0.28236416E-04  0.27066394E-04
  0.25761353E-04  0.24334756E-04  0.22800338E-04  0.21172005E-04  0.19463749E-04
  0.17689549E-04  0.15863289E-04  0.13998673E-04  0.12109149E-04  0.10207829E-04
  0.83074233E-05  0.64201754E-05  0.45578016E-05  0.27314375E-05  0.95158912E-06
 -0.77190962E-06 -0.24299344E-05 -0.40141019E-05 -0.55167958E-05 -0.69311868E-05
 -0.82512476E-05 -0.94717617E-05 -0.10588328E-04 -0.11597359E-04 -0.12496074E-04
 -0.13282490E-04 -0.13955405E-04 -0.14514380E-04 -0.14959710E-04 -0.15292405E-04
 -0.15514153E-04 -0.15627287E-04 -0.15634750E-04 -0.15540055E-04 -0.15347244E-04
 -0.15060843E-04 -0.14685821E-04 -0.14227539E-04 -0.13691709E-04 -0.13084341E-04
 -0.12411701E-04 -0.11680258E-04 -0.10896640E-04 -0.10067587E-04 -0.91999056E-05
 -0.83004227E-05 -0.73759435E-05 -0.64332093E-05 -0.54788575E-05 -0.45193840E-05
 -0.35611066E-05 -0.26101318E-05 -0.16723233E-05 -0.75327341E-06  0.14172330E-06
  0.10076934E-05  0.18400054E-05  0.26343876E-05  0.33869437E-05  0.40941647E-05
  0.47529389E-05  0.53605586E-05  0.59147245E-05  0.64135470E-05  0.68555451E-05
  0.72396433E-05  0.75651654E-05  0.78318261E-05  0.80397213E-05  0.81893151E-05
  0.82814259E-05  0.83172104E-05  0.82981457E-05  0.82260108E-05  0.81028661E-05
  0.79310316E-05  0.77130650E-05  0.74517387E-05  0.71500154E-05  0.68110244E-05
  0.64380368E-05  0.60344411E-05  0.56037184E-05  0.51494178E-05  0.46751324E-05
  0.41844756E-05  0.36810578E-05  0.31684641E-05  0.26502327E-05  0.21298338E-05
  0.16106507E-05  0.10959604E-05  0.58891668E-06  0.92534080E-07 -0.39032715E-06
 -0.85697430E-06 -0.13048942E-05 -0.17317638E-05 -0.21354590E-05 -0.25140625E-05
 -0.28658697E-05 -0.31893935E-05 -0.34833669E-05 -0.37467452E-05 -0.39787060E-05
 -0.41786483E-05 -0.43461895E-05 -0.44811622E-05 -0.45836091E-05 -0.46537766E-05
 -0.46921079E-05 -0.46992347E-05 -0.46759679E-05 -0.46232877E-05 -0.45423329E-05
 -0.44343892E-05 -0.43008773E-05 -0.41433403E-05 -0.39634309E-05 -0.37628977E-05
 -0.35435721E-05 -0.33073543E-05 -0.30561998E-05 -0.27921058E-05 -0.25170972E-05
 -0.22332134E-05 -0.19424957E-05 -0.16469736E-05 -0.13486531E-05 -0.10495046E-05
 -0.75145164E-06 -0.45635998E-06 -0.16602763E-06  0.11782467E-06  0.39356211E-06
  0.65964376E-06  0.91462973E-06  0.11571875E-05  0.13860976E-05  0.16002578E-05
  0.17986876E-05  0.19805307E-05  0.21450573E-05  0.22916655E-05  0.24198816E-05
  0.25293597E-05  0.26198809E-05  0.26913511E-05  0.27437986E-05  0.27773706E-05
  0.27923295E-05  0.27890483E-05  0.27680053E-05  0.27297786E-05  0.26750400E-05
  0.26045483E-05  0.25191426E-05  0.24197350E-05  0.23073027E-05  0.21828811E-05
  0.20475549E-05  0.19024510E-05  0.17487299E-05  0.15875777E-05  0.14201981E-05
  0.12478046E-05  0.10716125E-05  0.89283141E-06  0.71265765E-06  0.53226732E-06
  0.35280930E-06  0.17539882E-06  0.11113156E-08 -0.16902338E-06 -0.33402632E-06
 -0.49297433E-06 -0.64500444E-06 -0.78931781E-06 -0.92518322E-06 -0.10519400E-05
 -0.11690004E-05 -0.12758516E-05 -0.13720573E-05 -0.14572582E-05 -0.15311729E-05
 -0.15935973E-05 -0.16444047E-05 -0.16835442E-05 -0.17110395E-05 -0.17269871E-05
 -0.17315536E-05 -0.17249735E-05 -0.17075459E-05 -0.16796313E-05 -0.16416475E-05
 -0.15940663E-05 -0.15374089E-05 -0.14722414E-05 -0.13991708E-05 -0.13188395E-05
 -0.12319212E-05 -0.11391155E-05 -0.10411431E-05 -0.93874104E-06 -0.83265722E-06
 -0.72364594E-06 -0.61246287E-06 -0.49986031E-06 -0.38658257E-06 -0.27336152E-06
 -0.16091229E-06 -0.49929184E-07  0.58918192E-07  0.16498856E-06  0.26767234E-06
  0.36639474E-06  0.46061860E-06  0.54984689E-06  0.63362492E-06  0.71154228E-06
  0.78323438E-06  0.84838375E-06  0.90672100E-06  0.95802539E-06  0.10021252E-05
  0.10388978E-05  0.10682691E-05  0.10902133E-05  0.11047517E-05  0.11119517E-05
  0.11119254E-05  0.11048279E-05  0.10908553E-05  0.10702428E-05  0.10432622E-05
  0.10102197E-05  0.97145272E-06  0.92732780E-06  0.87823717E-06  0.82459600E-06
  0.76683926E-06  0.70541859E-06  0.64079910E-06  0.57345625E-06  0.50387260E-06
  0.43253467E-06  0.35992981E-06  0.28654316E-06  0.21285465E-06  0.13933612E-06
  0.66448523E-07 -0.53606947E-08 -0.75660135E-07 -0.14403680E-06 -0.21009827E-06
 -0.27347479E-06 -0.33382104E-06 -0.39081781E-06 -0.44417350E-06 -0.49362532E-06
 -0.53894037E-06 -0.57991648E-06 -0.61638283E-06 -0.64820042E-06 -0.67526223E-06
 -0.69749330E-06 -0.71485052E-06 -0.72732225E-06 -0.73492776E-06 -0.73771651E-06
 -0.73576721E-06 -0.72918675E-06 -0.71810897E-06 -0.70269327E-06 -0.68312313E-06
 -0.65960447E-06 -0.63236390E-06 -0.60164692E-06 -0.56771603E-06 -0.53084868E-06
 -0.49133532E-06 -0.44947729E-06 -0.40558474E-06 -0.35997449E-06 -0.31296797E-06
 -0.26488906E-06 -0.21606209E-06 -0.16680973E-06 -0.11745107E-06 -0.68299665E-07
 -0.19661685E-07  0.28165845E-07  0.74896731E-07  0.12025718E-06  0.16398728E-06
  0.20584236E-06  0.24559419E-06  0.28303216E-06  0.31796418E-06  0.35021758E-06
  0.37963979E-06  0.40609893E-06  0.42948423E-06  0.44970630E-06  0.46669733E-06
  0.48041105E-06  0.49082266E-06  0.49792856E-06  0.50174594E-06  0.50231235E-06
  0.49968501E-06  0.49394016E-06  0.48517215E-06  0.47349255E-06  0.45902915E-06
  0.44192483E-06  0.42233638E-06  0.40043329E-06  0.37639645E-06  0.35041677E-06
  0.32269386E-06  0.29343459E-06  0.26285167E-06  0.23116219E-06  0.19858623E-06
  0.16534540E-06  0.13166142E-06  0.97754756E-07  0.63843250E-07  0.30140812E-07
 -0.31438484E-08 -0.35808428E-07 -0.67658179E-07 -0.98506990E-07 -0.12817839E-06
 -0.15650649E-06 -0.18333681E-06 -0.20852704E-06 -0.23194772E-06 -0.25348283E-06
 -0.27303025E-06 -0.29050216E-06 -0.30582533E-06 -0.31894133E-06 -0.32980661E-06
 -0.33839253E-06 -0.34468525E-06 -0.34868559E-06 -0.35040873E-06 -0.34988387E-06
 -0.34715381E-06 -0.34227444E-06 -0.33531417E-06 -0.32635324E-06 -0.31548307E-06
 -0.30280546E-06 -0.28843177E-06 -0.27248206E-06 -0.25508422E-06 -0.23637296E-06
 -0.21648895E-06 -0.19557774E-06 -0.17378883E-06 -0.15127465E-06 -0.12818955E-06
 -0.10468879E-06 -0.80927601E-07 -0.57060152E-07 -0.33238656E-07 -0.96124256E-08
  0.13673001E-07  0.36476709E-07  0.58663208E-07  0.80103185E-07  0.10067421E-06
  0.12026138E-06  0.13875792E-06  0.15606570E-06  0.17209570E-06  0.18676844E-06
  0.20001427E-06  0.21177370E-06  0.22199752E-06  0.23064703E-06  0.23769404E-06
  0.24312086E-06  0.24692030E-06  0.24909550E-06  0.24965971E-06  0.24863611E-06
  0.24605743E-06  0.24196562E-06  0.23641144E-06  0.22945399E-06  0.22116020E-06
  0.21160427E-06  0.20086712E-06  0.18903573E-06  0.17620255E-06  0.16246477E-06
  0.14792368E-06  0.13268397E-06  0.11685298E-06  0.10054004E-06  0.83855705E-07
  0.66911072E-07  0.49817070E-07  0.32683768E-07  0.15619702E-07 -0.12687807E-08
 -0.17878149E-07 -0.34108292E-07 -0.49863087E-07 -0.65050939E-07 -0.79585278E-07
 -0.93385025E-07 -0.10637500E-06 -0.11848632E-06 -0.12965670E-06 -0.13983075E-06
 -0.14896023E-06 -0.15700421E-06 -0.16392921E-06 -0.16970932E-06 -0.17432621E-06
 -0.17776916E-06 -0.18003496E-06 -0.18112785E-06 -0.18105937E-06 -0.17984814E-06
 -0.17751970E-06 -0.17410616E-06 -0.16964597E-06 -0.16418352E-06 -0.15776880E-06
 -0.15045702E-06 -0.14230814E-06 -0.13338644E-06 -0.12376006E-06 -0.11350050E-06
 -0.10268214E-06 -0.91381699E-07 -0.79677746E-07 -0.67650169E-07 -0.55379660E-07
 -0.42947192E-07 -0.30433512E-07 -0.17918639E-07 -0.54813762E-08  0.68011683E-08
  0.18854032E-07  0.30604839E-07  0.41984209E-07  0.52926147E-07  0.63368407E-07
  0.73252822E-07  0.82525606E-07  0.91137624E-07  0.99044631E-07  0.10620747E-06
  0.11259225E-06  0.11817047E-06  0.12291912E-06  0.12682072E-06  0.12986340E-06
  0.13204083E-06  0.13335223E-06  0.13380225E-06  0.13340086E-06  0.13216327E-06
  0.13010965E-06  0.12726505E-06  0.12365906E-06  0.11932566E-06  0.11430285E-06
  0.10863241E-06  0.10235958E-06  0.95532684E-07  0.88202838E-07  0.80423552E-07
  0.72250369E-07  0.63740494E-07  0.54952404E-07  0.45945468E-07  0.36779560E-07
  0.27514679E-07  0.18210571E-07  0.89263583E-08 -0.27981913E-09 -0.93511563E-08
 -0.18232517E-07 -0.26870755E-07 -0.35215019E-07 -0.43217035E-07 -0.50831373E-07
 -0.58015691E-07 -0.64730954E-07 -0.70941629E-07 -0.76615863E-07 -0.81725621E-07
 -0.86246814E-07 -0.90159391E-07 -0.93447405E-07 -0.96099054E-07 -0.98106701E-07
 -0.99466855E-07 -0.10018014E-06 -0.10025123E-06 -0.99688754E-07 -0.98505213E-07
 -0.96716812E-07 -0.94343330E-07 -0.91407936E-07 -0.87937000E-07 -0.83959881E-07
 -0.79508703E-07 -0.74618111E-07 -0.69325026E-07 -0.63668376E-07 -0.57688825E-07
 -0.51428497E-07 -0.44930691E-07 -0.38239592E-07 -0.31399984E-07 -0.24456960E-07
 -0.17455639E-07 -0.10440876E-07 -0.34569934E-08  0.34524948E-08  0.10245142E-07
  0.16879819E-07  0.23316956E-07  0.29518766E-07  0.35449458E-07  0.41075436E-07
  0.46365471E-07  0.51290876E-07  0.55825640E-07  0.59946561E-07  0.63633348E-07
  0.66868713E-07  0.69638435E-07  0.71931409E-07  0.73739671E-07  0.75058407E-07
  0.75885942E-07  0.76223704E-07  0.76076176E-07  0.75450825E-07  0.74358016E-07
  0.72810908E-07  0.70825335E-07  0.68419669E-07  0.65614670E-07  0.62433329E-07
  0.58900687E-07  0.55043659E-07  0.50890834E-07  0.46472274E-07  0.41819313E-07
  0.36964334E-07  0.31940561E-07  0.26781834E-07  0.21522393E-07  0.16196654E-07
  0.10838997E-07  0.54835457E-08  0.16396045E-09 -0.50867672E-08 -0.10236512E-07
 -0.15254206E-07 -0.20110016E-07 -0.24775517E-07 -0.29223852E-07 -0.33429878E-07
 -0.37370299E-07 -0.41023793E-07 -0.44371114E-07 -0.47395192E-07 -0.50081204E-07
 -0.52416642E-07 -0.54391363E-07 -0.55997615E-07 -0.57230063E-07 -0.58085784E-07
 -0.58564258E-07 -0.58667339E-07 -0.58399213E-07 -0.57766342E-07 -0.56777393E-07
 -0.55443158E-07 -0.53776454E-07 -0.51792024E-07 -0.49506413E-07 -0.46937846E-07
 -0.44106091E-07 -0.41032315E-07 -0.37738934E-07 -0.34249456E-07 -0.30588322E-07
 -0.26780739E-07 -0.22852511E-07 -0.18829877E-07 -0.14739331E-07 -0.10607461E-07
 -0.64607778E-08 -0.23255499E-08  0.17723566E-08  0.58076359E-08  0.97556935E-08
  0.13592791E-07  0.17296186E-07  0.20844257E-07  0.24216632E-07  0.27394294E-07
  0.30359686E-07  0.33096802E-07  0.35591271E-07  0.37830420E-07  0.39803339E-07
  0.41500922E-07  0.42915906E-07  0.44042892E-07  0.44878352E-07  0.45420636E-07
  0.45669951E-07  0.45628342E-07  0.45299653E-07  0.44689483E-07  0.43805131E-07
  0.42655523E-07  0.41251143E-07  0.39603945E-07  0.37727261E-07  0.35635699E-07
  0.33345037E-07  0.30872110E-07  0.28234693E-07  0.25451376E-07  0.22541438E-07
  0.19524718E-07  0.16421486E-07  0.13252306E-07  0.10037910E-07  0.67990610E-08
  0.35564246E-08  0.33044078E-09 -0.28588019E-08 -0.59916875E-08 -0.90491902E-08
 -0.12012986E-07 -0.14865559E-07 -0.17590302E-07 -0.20171610E-07 -0.22594963E-07
 -0.24847009E-07 -0.26915628E-07 -0.28789999E-07 -0.30460645E-07 -0.31919486E-07
 -0.33159864E-07 -0.34176571E-07 -0.34965867E-07 -0.35525483E-07 -0.35854618E-07
 -0.35953928E-07 -0.35825502E-07 -0.35472836E-07 -0.34900791E-07 -0.34115548E-07
 -0.33124553E-07 -0.31936457E-07 -0.30561046E-07 -0.29009166E-07 -0.27292644E-07
 kinetic energy density (partial)
  0.30451877E+03  0.30439787E+03  0.30403546E+03  0.30343240E+03  0.30259011E+03
  0.30151058E+03  0.30019634E+03  0.29865047E+03  0.29687660E+03  0.29487883E+03
  0.29266180E+03  0.29023062E+03  0.28759084E+03  0.28474847E+03  0.28170993E+03
  0.27848201E+03  0.27507189E+03  0.27148706E+03  0.26773534E+03  0.26382481E+03
  0.25976381E+03  0.25556088E+03  0.25122478E+03  0.24676438E+03  0.24218872E+03
  0.23750692E+03  0.23272816E+03  0.22786167E+03  0.22291666E+03  0.21790236E+03
  0.21282793E+03  0.20770244E+03  0.20253489E+03  0.19733413E+03  0.19210888E+03
  0.18686768E+03  0.18161888E+03  0.17637064E+03  0.17113086E+03  0.16590722E+03
  0.16070712E+03  0.15553772E+03  0.15040586E+03  0.14531811E+03  0.14028073E+03
  0.13529965E+03  0.13038052E+03  0.12552862E+03  0.12074895E+03  0.11604614E+03
  0.11142452E+03  0.10688808E+03  0.10244047E+03  0.98085039E+02  0.93824788E+02
  0.89662414E+02  0.85600295E+02  0.81640507E+02  0.77784821E+02  0.74034718E+02
  0.70391394E+02  0.66855769E+02  0.63428496E+02  0.60109972E+02  0.56900348E+02
  0.53799538E+02  0.50807231E+02  0.47922901E+02  0.45145821E+02  0.42475068E+02
  0.39909542E+02  0.37447972E+02  0.35088928E+02  0.32830835E+02  0.30671982E+02
  0.28610533E+02  0.26644538E+02  0.24771944E+02  0.22990606E+02  0.21298296E+02
  0.19692714E+02  0.18171497E+02  0.16732229E+02  0.15372449E+02  0.14089660E+02
  0.12881337E+02  0.11744939E+02  0.10677908E+02  0.96776859E+01  0.87417139E+01
  0.78674433E+01  0.70523400E+01  0.62938905E+01  0.55896070E+01  0.49370331E+01
  0.43337476E+01  0.37773692E+01  0.32655605E+01  0.27960312E+01  0.23665415E+01
  0.19749052E+01  0.16189918E+01  0.12967291E+01  0.10061052E+01  0.74516988E+00
  0.51203620E+00  0.30488153E+00  0.12194845E+00 -0.38454631E-01 -0.17795311E+00
 -0.29810599E+00 -0.40040594E+00 -0.48627951E+00 -0.55708755E+00 -0.61412577E+00
 -0.65862553E+00 -0.69175468E+00 -0.71461861E+00 -0.72826139E+00 -0.73366700E+00
 -0.73176076E+00 -0.72341072E+00 -0.70942921E+00 -0.69057449E+00 -0.66755234E+00
 -0.64101785E+00 -0.61157716E+00 -0.57978927E+00 -0.54616786E+00 -0.51118315E+00
 -0.47526376E+00 -0.43879860E+00 -0.40213870E+00 -0.36559912E+00 -0.32946078E+00
 -0.29397231E+00 -0.25935182E+00 -0.22578876E+00 -0.19344563E+00 -0.16245969E+00
 -0.13294468E+00 -0.10499245E+00 -0.78674548E-01 -0.54043776E-01 -0.31135698E-01
 -0.99700869E-02  0.94476738E-02  0.27125248E-01  0.43082053E-01  0.57348029E-01
  0.69962457E-01  0.80972840E-01  0.90433838E-01  0.98406258E-01  0.10495611E+00
  0.11015369E+00  0.11407278E+00  0.11678983E+00  0.11838323E+00  0.11893265E+00
  0.11851840E+00  0.11722086E+00  0.11511994E+00  0.11229462E+00  0.10882251E+00
  0.10477946E+00  0.10023920E+00  0.95273065E-01  0.89949698E-01  0.84334846E-01
  0.78491153E-01  0.72478007E-01  0.66351412E-01  0.60163890E-01  0.53964413E-01
  0.47798364E-01  0.41707514E-01  0.35730031E-01  0.29900506E-01  0.24249996E-01
  0.18806090E-01  0.13592989E-01  0.86315944E-02  0.39396189E-02 -0.46829813E-03
 -0.45804633E-02 -0.83879937E-02 -0.11884674E-01 -0.15066809E-01 -0.17933070E-01
 -0.20484340E-01 -0.22723552E-01 -0.24655533E-01 -0.26286845E-01 -0.27625619E-01
 -0.28681406E-01 -0.29465016E-01 -0.29988365E-01 -0.30264329E-01 -0.30306599E-01
 -0.30129538E-01 -0.29748051E-01 -0.29177449E-01 -0.28433333E-01 -0.27531471E-01
 -0.26487694E-01 -0.25317784E-01 -0.24037383E-01 -0.22661904E-01 -0.21206442E-01
 -0.19685704E-01 -0.18113937E-01 -0.16504869E-01 -0.14871650E-01 -0.13226808E-01
 -0.11582207E-01 -0.99490095E-02 -0.83376496E-02 -0.67578112E-02 -0.52184105E-02
 -0.37275849E-02 -0.22926873E-02 -0.92028572E-03  0.38383316E-03  0.16146551E-02
  0.27679260E-02  0.38401350E-02  0.48284948E-02  0.57309184E-02  0.65459929E-02
  0.72729509E-02  0.79116395E-02  0.84624874E-02  0.89264703E-02  0.93050749E-02
  0.96002619E-02  0.98144279E-02  0.99503673E-02  0.10011233E-01  0.10000499E-01
  0.99219184E-02  0.97794894E-02  0.95774143E-02  0.93200641E-02  0.90119417E-02
  0.86576473E-02  0.82618447E-02  0.78292287E-02  0.73644943E-02  0.68723074E-02
  0.63572773E-02  0.58239305E-02  0.52766870E-02  0.47198378E-02  0.41575247E-02
  0.35937219E-02  0.30322193E-02  0.24766081E-02  0.19302683E-02  0.13963577E-02
  0.87780298E-03  0.37729282E-03 -0.10272749E-03 -0.56005963E-03 -0.99275413E-03
 -0.13991107E-02 -0.17776771E-02 -0.21272463E-02 -0.24468528E-02 -0.27357670E-02
 -0.29934891E-02 -0.32197414E-02 -0.34144598E-02 -0.35777843E-02 -0.37100493E-02
 -0.38117717E-02 -0.38836405E-02 -0.39265038E-02 -0.39413573E-02 -0.39293304E-02
 -0.38916744E-02 -0.38297483E-02 -0.37450063E-02 -0.36389840E-02 -0.35132860E-02
 -0.33695722E-02 -0.32095453E-02 -0.30349388E-02 -0.28475042E-02 -0.26490001E-02
 -0.24411803E-02 -0.22257836E-02 -0.20045235E-02 -0.17790785E-02 -0.15510835E-02
 -0.13221210E-02 -0.10937142E-02 -0.86731925E-03 -0.64431959E-03 -0.42602013E-03
 -0.21364250E-03 -0.83208422E-05  0.18890157E-03  0.37707509E-03  0.55534582E-03
  0.72295691E-03  0.87924944E-03  0.10236624E-02  0.11557325E-02  0.12750928E-02
  0.13814713E-02  0.14746889E-02  0.15546568E-02  0.16213733E-02  0.16749207E-02
  0.17154612E-02  0.17432331E-02  0.17585459E-02  0.17617761E-02  0.17533620E-02
  0.17337987E-02  0.17036328E-02  0.16634569E-02  0.16139047E-02  0.15556447E-02
  0.14893757E-02  0.14158205E-02  0.13357208E-02  0.12498322E-02  0.11589186E-02
  0.10637473E-02  0.96508424E-03  0.86368908E-03  0.76031095E-03  0.65568407E-03
  0.55052381E-03  0.44552292E-03  0.34134809E-03  0.23863675E-03  0.13799420E-03
  0.39991019E-04 -0.54839214E-04 -0.14600190E-03 -0.23304310E-03 -0.31555086E-03
 -0.39315629E-03 -0.46553434E-03 -0.53240424E-03 -0.59352966E-03 -0.64871869E-03
 -0.69782336E-03 -0.74073914E-03 -0.77740400E-03 -0.80779734E-03 -0.83193871E-03
 -0.84988627E-03 -0.86173514E-03 -0.86761552E-03 -0.86769071E-03 -0.86215495E-03
 -0.85123120E-03 -0.83516874E-03 -0.81424080E-03 -0.78874205E-03 -0.75898600E-03
 -0.72530252E-03 -0.68803521E-03 -0.64753880E-03 -0.60417662E-03 -0.55831806E-03
 -0.51033610E-03 -0.46060485E-03 -0.40949721E-03 -0.35738264E-03 -0.30462495E-03
 -0.25158023E-03 -0.19859493E-03 -0.14600399E-03 -0.94129162E-04 -0.43277456E-04
  0.62603224E-05  0.54210828E-04  0.10031932E-03  0.14435064E-03  0.18609007E-03
  0.22534397E-03  0.26194037E-03  0.29572930E-03  0.32658306E-03  0.35439633E-03
  0.37908607E-03  0.40059139E-03  0.41887324E-03  0.43391396E-03  0.44571672E-03
  0.45430489E-03  0.45972127E-03  0.46202722E-03  0.46130172E-03  0.45764037E-03
  0.45115424E-03  0.44196879E-03  0.43022260E-03  0.41606615E-03  0.39966052E-03
  0.38117608E-03  0.36079117E-03  0.33869076E-03  0.31506507E-03  0.29010830E-03
  0.26401727E-03  0.23699014E-03  0.20922514E-03  0.18091936E-03  0.15226752E-03
  0.12346090E-03  0.94686180E-04  0.66124496E-04  0.37950425E-04  0.10331116E-04
 -0.16574532E-04 -0.42616621E-04 -0.67654918E-04 -0.91559452E-04 -0.11421102E-03
 -0.13550163E-03 -0.15533484E-03 -0.17362603E-03 -0.19030260E-03 -0.20530407E-03
 -0.21858213E-03 -0.23010060E-03 -0.23983527E-03 -0.24777379E-03 -0.25391536E-03
 -0.25827045E-03 -0.26086040E-03 -0.26171701E-03 -0.26088202E-03 -0.25840663E-03
 -0.25435089E-03 -0.24878310E-03 -0.24177915E-03 -0.23342187E-03 -0.22380030E-03
 -0.21300899E-03 -0.20114727E-03 -0.18831849E-03 -0.17462928E-03 -0.16018881E-03
 -0.14510805E-03 -0.12949902E-03 -0.11347408E-03 -0.97145208E-04 -0.80623349E-04
 -0.64017735E-04 -0.47435254E-04 -0.30979858E-04 -0.14751991E-04  0.11519375E-05
  0.16640046E-04  0.31625431E-04  0.46026574E-04  0.59767709E-04  0.72779142E-04
  0.84997525E-04  0.96366086E-04  0.10683481E-03  0.11636058E-03  0.12490725E-03
  0.13244573E-03  0.13895395E-03  0.14441682E-03  0.14882617E-03  0.15218062E-03
  0.15448539E-03  0.15575215E-03  0.15599873E-03  0.15524891E-03  0.15353209E-03
  0.15088297E-03  0.14734121E-03  0.14295108E-03  0.13776104E-03  0.13182335E-03
  0.12519367E-03  0.11793060E-03  0.11009525E-03  0.10175085E-03  0.92962239E-04
  0.83795455E-04  0.74317307E-04  0.64594926E-04  0.54695349E-04  0.44685105E-04
  0.34629814E-04  0.24593806E-04  0.14639750E-04  0.48283101E-05 -0.47821879E-05
 -0.14136056E-04 -0.23180531E-04 -0.31866026E-04 -0.40146368E-04 -0.47979000E-04
 -0.55325159E-04 -0.62150027E-04 -0.68422855E-04 -0.74117058E-04 -0.79210281E-04
 -0.83684437E-04 -0.87525724E-04 -0.90724610E-04 -0.93275787E-04 -0.95178115E-04
 -0.96434527E-04 -0.97051917E-04 -0.97041011E-04 -0.96416205E-04 -0.95195401E-04
 -0.93399807E-04 -0.91053735E-04 -0.88184382E-04 -0.84821590E-04 -0.80997605E-04
 -0.76746823E-04 -0.72105529E-04 -0.67111625E-04 -0.61804365E-04 -0.56224078E-04
 -0.50411896E-04 -0.44409479E-04 -0.38258746E-04 -0.32001614E-04 -0.25679729E-04
 -0.19334225E-04 -0.13005470E-04 -0.67328426E-05 -0.55450273E-06  0.54928145E-05
  0.11373996E-04  0.17055733E-04  0.22506686E-04  0.27697639E-04  0.32601632E-04
  0.37194079E-04  0.41452871E-04  0.45358456E-04  0.48893907E-04  0.52044970E-04
  0.54800096E-04  0.57150449E-04  0.59089911E-04  0.60615055E-04  0.61725112E-04
  0.62421916E-04  0.62709842E-04  0.62595721E-04  0.62088747E-04  0.61200370E-04
  0.59944176E-04  0.58335762E-04  0.56392592E-04  0.54133852E-04  0.51580294E-04
  0.48754078E-04  0.45678599E-04  0.42378322E-04  0.38878607E-04  0.35205530E-04
  0.31385709E-04  0.27446130E-04  0.23413968E-04  0.19316416E-04  0.15180517E-04
  0.11033001E-04  0.69001206E-05  0.28075030E-05 -0.12199982E-05 -0.51584411E-05
 -0.89849250E-05 -0.12677712E-04 -0.16216336E-04 -0.19581708E-04 -0.22756202E-04
 -0.25723738E-04 -0.28469849E-04 -0.30981739E-04 -0.33248329E-04 -0.35260288E-04
 -0.37010063E-04 -0.38491885E-04 -0.39701768E-04 -0.40637503E-04 -0.41298634E-04
 -0.41686427E-04 -0.41803825E-04 -0.41655402E-04 -0.41247298E-04 -0.40587152E-04
 -0.39684025E-04 -0.38548317E-04 -0.37191675E-04 -0.35626895E-04 -0.33867824E-04
 -0.31929251E-04 -0.29826799E-04 -0.27576808E-04 -0.25196226E-04 -0.22702484E-04
 -0.20113388E-04 -0.17446994E-04 -0.14721495E-04 -0.11955102E-04 -0.91659356E-05
 -0.63719117E-05 -0.35906353E-05 -0.83929748E-06  0.18654238E-05  0.45074570E-05
  0.70714255E-05  0.95427298E-05  0.11907623E-04  0.14153282E-04  0.16267865E-04
  0.18240571E-04  0.20061689E-04  0.21722629E-04  0.23215964E-04  0.24535449E-04
  0.25676040E-04  0.26633901E-04  0.27406408E-04  0.27992140E-04  0.28390868E-04
  0.28603532E-04  0.28632216E-04  0.28480112E-04  0.28151483E-04  0.27651612E-04
  0.26986755E-04  0.26164081E-04  0.25191615E-04  0.24078167E-04  0.22833269E-04
  0.21467098E-04  0.19990404E-04  0.18414431E-04  0.16750840E-04  0.15011629E-04
  0.13209051E-04  0.11355533E-04  0.94635982E-05  0.75457862E-05  0.56145723E-05
  0.36822937E-05  0.17610743E-05 -0.13724651E-06 -0.20011821E-05 -0.38196640E-05
 -0.55821028E-05 -0.72784459E-05 -0.88992299E-05 -0.10435629E-04 -0.11879500E-04
 -0.13223418E-04 -0.14460712E-04 -0.15585494E-04 -0.16592678E-04 -0.17478002E-04
 -0.18238038E-04 -0.18870198E-04 -0.19372738E-04 -0.19744750E-04 -0.19986158E-04
 -0.20097701E-04 -0.20080915E-04 -0.19938111E-04 -0.19672345E-04 -0.19287386E-04
 -0.18787686E-04 -0.18178333E-04 -0.17465012E-04 -0.16653961E-04 -0.15751922E-04
 -0.14766086E-04 -0.13704048E-04 -0.12573750E-04 -0.11383421E-04 -0.10141531E-04
 -0.88567242E-05 -0.75377692E-05 -0.61934993E-05 -0.48327577E-05 -0.34643417E-05
 -0.20969495E-05 -0.73912732E-06  0.60078082E-06  0.19146818E-05  0.31947791E-05
  0.44336170E-05  0.56241205E-05  0.67596333E-05  0.78339522E-05  0.88413581E-05
  0.97766436E-05  0.10635137E-04  0.11412722E-04  0.12105855E-04  0.12711576E-04
  0.13227521E-04  0.13651923E-04  0.13983615E-04  0.14222028E-04  0.14367182E-04
  0.14419681E-04  0.14380696E-04  0.14251950E-04  0.14035698E-04  0.13734704E-04
  0.13352216E-04  0.12891939E-04  0.12358004E-04  0.11754933E-04  0.11087609E-04
  0.10361236E-04  0.95813052E-05  0.87535527E-05  0.78839221E-05  0.69785237E-05
  0.60435938E-05  0.50854540E-05  0.41104708E-05  0.31250149E-05  0.21354216E-05
  0.11479525E-05  0.16875710E-06 -0.79616338E-06 -0.17409909E-05 -0.26601241E-05
 -0.35482095E-05 -0.44001710E-05 -0.52112372E-05 -0.59769662E-05 -0.66932679E-05
 -0.73564243E-05 -0.79631067E-05 -0.85103903E-05 -0.89957661E-05 -0.94171501E-05
 -0.97728900E-05 -0.10061768E-04 -0.10283003E-04 -0.10436247E-04 -0.10521582E-04
 -0.10539513E-04 -0.10490957E-04 -0.10377232E-04 -0.10200042E-04 -0.99614640E-05
 -0.96639224E-05 -0.93101748E-05 -0.89032875E-05 -0.84466118E-05 -0.79437589E-05
 -0.73985737E-05 -0.68151073E-05 -0.61975884E-05 -0.55503949E-05 -0.48780239E-05
 -0.41850623E-05 -0.34761567E-05 -0.27559837E-05 -0.20292202E-05 -0.13005148E-05
 -0.57445878E-06  0.14444149E-06  0.85179112E-06  0.15433325E-05  0.22149698E-05
  0.28627920E-05  0.34830944E-05  0.40723988E-05  0.46274717E-05  0.51453406E-05
  0.56233091E-05  0.60589693E-05  0.64502126E-05  0.67952385E-05  0.70925613E-05
  0.73410145E-05  0.75397539E-05  0.76882577E-05  0.77863251E-05  0.78340733E-05
  0.78319316E-05  0.77806346E-05  0.76812130E-05  0.75349832E-05  0.73435345E-05
  0.71087158E-05  0.68326200E-05  0.65175675E-05  0.61660889E-05  0.57809056E-05
  0.53649106E-05  0.49211479E-05  0.44527915E-05  0.39631237E-05  0.34555129E-05
  0.29333918E-05  0.24002353E-05  0.18595373E-05  0.13147900E-05  0.76946108E-06
  0.22697311E-06 -0.30931734E-06 -0.83613964E-06 -0.13503282E-05 -0.18488408E-05
 -0.23287758E-05 -0.27873878E-05 -0.32221034E-05 -0.36305339E-05 -0.40104884E-05
 -0.43599838E-05 -0.46772553E-05 -0.49607633E-05 -0.52092006E-05 -0.54214971E-05
 -0.55968231E-05 -0.57345910E-05 -0.58344560E-05 -0.58963148E-05 -0.59203025E-05
 -0.59067890E-05 -0.58563732E-05 -0.57698763E-05 -0.56483334E-05 -0.54929843E-05
 -0.53052630E-05 -0.50867859E-05 -0.48393397E-05 -0.45648675E-05 -0.42654546E-05
 -0.39433140E-05 -0.36007705E-05 -0.32402449E-05 -0.28642373E-05 -0.24753110E-05
 -0.20760753E-05 -0.16691687E-05 -0.12572422E-05 -0.84294244E-06 -0.42889535E-06
 -0.17690164E-07  0.38813632E-06  0.78611480E-06  0.11738580E-05  0.15490742E-05
  0.19095807E-05  0.22533156E-05  0.25783490E-05  0.28828936E-05  0.31653136E-05
  0.34241330E-05  0.36580428E-05  0.38659068E-05  0.40467666E-05  0.41998447E-05
  0.43245478E-05  0.44204672E-05  0.44873797E-05  0.45252459E-05  0.45342085E-05
  0.45145887E-05  0.44668823E-05  0.43917538E-05  0.42900305E-05  0.41626949E-05
  0.40108768E-05  0.38358443E-05  0.36389941E-05  0.34218408E-05  0.31860067E-05
  0.29332095E-05  0.26652508E-05  0.23840038E-05  0.20914004E-05  0.17894189E-05
  0.14800705E-05  0.11653869E-05  0.84740693E-06  0.52816401E-06  0.20967349E-06
 -0.10607970E-06 -0.41715302E-06 -0.72165787E-06 -0.10177707E-05 -0.13037436E-05
 -0.15779140E-05 -0.18387143E-05 -0.20846801E-05 -0.23144584E-05 -0.25268142E-05
 -0.27206369E-05 -0.28949458E-05 -0.30488945E-05 -0.31817742E-05 -0.32930168E-05
 -0.33821964E-05 -0.34490305E-05 -0.34933795E-05 -0.35152461E-05 -0.35147734E-05
 -0.34922425E-05 -0.34480686E-05 -0.33827970E-05 -0.32970982E-05 -0.31917620E-05
 -0.30676909E-05 -0.29258936E-05 -0.27674770E-05 -0.25936380E-05 -0.24056555E-05
 -0.22048807E-05 -0.19927283E-05 -0.17706666E-05 -0.15402080E-05 -0.13028986E-05
 -0.10603087E-05 -0.81402207E-06 -0.56562650E-06 -0.31670346E-06 -0.68818511E-07
  0.17648834E-06  0.41771192E-06  0.65339083E-06  0.88211604E-06  0.11025391E-05
  0.13133796E-05  0.15134326E-05  0.17015753E-05  0.18767724E-05  0.20380826E-05
  0.21846621E-05  0.23157697E-05  0.24307697E-05  0.25291346E-05  0.26104473E-05
  0.26744022E-05  0.27208060E-05  0.27495772E-05  0.27607455E-05  0.27544504E-05
  0.27309389E-05  0.26905625E-05  0.26337742E-05  0.25611239E-05  0.24732546E-05
  0.23708963E-05  0.22548614E-05  0.21260378E-05  0.19853834E-05  0.18339182E-05
  0.16727182E-05  0.15029074E-05  0.13256507E-05  0.11421456E-05  0.95361474E-06
  0.76129799E-06  0.56644432E-06  0.37030399E-06  0.17412075E-06 -0.20875851E-07
 -0.21347799E-06 -0.40250683E-06 -0.58681957E-06 -0.76531611E-06 -0.93694547E-06
 -0.11007117E-05 -0.12556797E-05 -0.14009799E-05 -0.15358133E-05 -0.16594557E-05
 -0.17712609E-05 -0.18706644E-05 -0.19571856E-05 -0.20304300E-05 -0.20900906E-05
 -0.21359488E-05 -0.21678749E-05 -0.21858277E-05 -0.21898539E-05 -0.21800868E-05
 -0.21567444E-05 -0.21201270E-05 -0.20706146E-05 -0.20086635E-05 -0.19348027E-05
 atomic pseudo charge-density
  0.60000000E+01  0.59913188E+01  0.59653906E+01  0.59225584E+01  0.58633818E+01
  0.57886203E+01  0.56992108E+01  0.55962405E+01  0.54809175E+01  0.53545392E+01
  0.52184608E+01  0.50740648E+01  0.49227323E+01  0.47658178E+01  0.46046273E+01
  0.44403996E+01  0.42742926E+01  0.41073729E+01  0.39406088E+01  0.37748676E+01
  0.36109142E+01  0.34494138E+01  0.32909352E+01  0.31359561E+01  0.29848695E+01
  0.28379904E+01  0.26955636E+01  0.25577703E+01  0.24247363E+01  0.22965380E+01
  0.21732097E+01  0.20547496E+01  0.19411250E+01  0.18322777E+01  0.17281285E+01
  0.16285812E+01  0.15335258E+01  0.14428422E+01  0.13564022E+01  0.12740722E+01
  0.11957150E+01  0.11211912E+01  0.10503609E+01  0.98308454E+00  0.91922403E+00
  0.85864329E+00  0.80120895E+00  0.74679074E+00  0.69526188E+00  0.64649930E+00
  0.60038377E+00  0.55680009E+00  0.51563704E+00  0.47678743E+00  0.44014809E+00
  0.40561973E+00  0.37310693E+00  0.34251800E+00  0.31376487E+00  0.28676294E+00
  0.26143102E+00  0.23769113E+00  0.21546838E+00  0.19469087E+00  0.17528954E+00
  0.15719804E+00  0.14035263E+00  0.12469204E+00  0.11015738E+00  0.96692049E-01
  0.84241603E-01  0.72753698E-01  0.62177988E-01  0.52466052E-01  0.43571318E-01
  0.35448997E-01  0.28056014E-01  0.21350955E-01  0.15294007E-01  0.98469069E-02
  0.49728932E-02  0.63665961E-03 -0.31956873E-02 -0.65566695E-02 -0.94774757E-02
 -0.11987999E-01 -0.14116870E-01 -0.15891494E-01 -0.17338081E-01 -0.18481677E-01
 -0.19346198E-01 -0.19954453E-01 -0.20328182E-01 -0.20488077E-01 -0.20453815E-01
 -0.20244081E-01 -0.19876600E-01 -0.19368162E-01 -0.18734644E-01 -0.17991046E-01
 -0.17151508E-01 -0.16229338E-01 -0.15237043E-01 -0.14186345E-01 -0.13088216E-01
 -0.11952894E-01 -0.10789915E-01 -0.96081327E-02 -0.84157447E-02 -0.72203168E-02
 -0.60288062E-02 -0.48475853E-02 -0.36824652E-02 -0.25387184E-02 -0.14211023E-02
 -0.33388100E-03  0.71915199E-03  0.17346520E-02  0.27097016E-02  0.36417894E-02
  0.45287888E-02  0.53689380E-02  0.61608194E-02  0.69033398E-02  0.75957115E-02
  0.82374326E-02  0.88282692E-02  0.93682365E-02  0.98575820E-02  0.10296767E-01
  0.10686453E-01  0.11027479E-01  0.11320854E-01  0.11567735E-01  0.11769415E-01
  0.11927310E-01  0.12042942E-01  0.12117928E-01  0.12153966E-01  0.12152824E-01
  0.12116329E-01  0.12046351E-01  0.11944799E-01  0.11813607E-01  0.11654726E-01
  0.11470111E-01  0.11261720E-01  0.11031499E-01  0.10781377E-01  0.10513260E-01
  0.10229025E-01  0.99305087E-02  0.96195103E-02  0.92977800E-02  0.89670171E-02
  0.86288655E-02  0.82849098E-02  0.79366726E-02  0.75856114E-02  0.72331162E-02
  0.68805078E-02  0.65290358E-02  0.61798779E-02  0.58341384E-02  0.54928485E-02
  0.51569653E-02  0.48273723E-02  0.45048798E-02  0.41902254E-02  0.38840752E-02
  0.35870246E-02  0.32996000E-02  0.30222601E-02  0.27553980E-02  0.24993429E-02
  0.22543624E-02  0.20206647E-02  0.17984007E-02  0.15876669E-02  0.13885079E-02
  0.12009188E-02  0.10248482E-02  0.86020081E-03  0.70684036E-03  0.56459238E-03
  0.43324708E-03  0.31256217E-03  0.20226571E-03  0.10205892E-03  0.11618931E-04
 -0.69398447E-04 -0.14135607E-03 -0.20463283E-03 -0.25962111E-03 -0.30672433E-03
 -0.34635452E-03 -0.37893005E-03 -0.40487341E-03 -0.42460911E-03 -0.43856167E-03
 -0.44715372E-03 -0.45080423E-03 -0.44992681E-03 -0.44492815E-03 -0.43620660E-03
 -0.42415078E-03 -0.40913843E-03 -0.39153524E-03 -0.37169391E-03 -0.34995326E-03
 -0.32663744E-03 -0.30205530E-03 -0.27649984E-03 -0.25024773E-03 -0.22355901E-03
 -0.19667680E-03 -0.16982717E-03 -0.14321905E-03 -0.11704426E-03 -0.91477606E-04
 -0.66677064E-04 -0.42784005E-04 -0.19923519E-04  0.17952111E-05  0.22278478E-04
  0.41447568E-04  0.59238229E-04  0.75600098E-04  0.90496092E-04  0.10390176E-03
  0.11580462E-03  0.12620345E-03  0.13510759E-03  0.14253621E-03  0.14851756E-03
  0.15308826E-03  0.15629251E-03  0.15818138E-03  0.15881204E-03  0.15824708E-03
  0.15655374E-03  0.15380324E-03  0.15007008E-03  0.14543139E-03  0.13996627E-03
  0.13375518E-03  0.12687936E-03  0.11942027E-03  0.11145901E-03  0.10307591E-03
  0.94349963E-04  0.85358461E-04  0.76176560E-04  0.66876916E-04  0.57529358E-04
  0.48200582E-04  0.38953889E-04  0.29848953E-04  0.20941625E-04  0.12283763E-04
  0.39231071E-05 -0.40968293E-05 -0.11736825E-04 -0.18961996E-04 -0.25741807E-04
 -0.32050060E-04 -0.37864854E-04 -0.43168523E-04 -0.47947553E-04 -0.52192472E-04
 -0.55897729E-04 -0.59061546E-04 -0.61685764E-04 -0.63775665E-04 -0.65339788E-04
 -0.66389731E-04 -0.66939941E-04 -0.67007503E-04 -0.66611914E-04 -0.65774863E-04
 -0.64519992E-04 -0.62872673E-04 -0.60859773E-04 -0.58509420E-04 -0.55850780E-04
 -0.52913825E-04 -0.49729118E-04 -0.46327595E-04 -0.42740354E-04 -0.38998460E-04
 -0.35132747E-04 -0.31173637E-04 -0.27150966E-04 -0.23093821E-04 -0.19030387E-04
 -0.14987809E-04 -0.10992060E-04 -0.70678244E-05 -0.32383972E-05  0.47441288E-06
  0.40503605E-05  0.74708315E-05  0.10718898E-04  0.13779360E-04  0.16638779E-04
  0.19285492E-04  0.21709625E-04  0.23903085E-04  0.25859548E-04  0.27574434E-04
  0.29044873E-04  0.30269666E-04  0.31249225E-04  0.31985524E-04  0.32482025E-04
  0.32743606E-04  0.32776484E-04  0.32588131E-04  0.32187180E-04  0.31583338E-04
  0.30787282E-04  0.29810568E-04  0.28665524E-04  0.27365151E-04  0.25923017E-04
  0.24353157E-04  0.22669968E-04  0.20888107E-04  0.19022396E-04  0.17087719E-04
  0.15098929E-04  0.13070757E-04  0.11017725E-04  0.89540604E-05  0.68936151E-05
  0.48497943E-05  0.28354839E-05  0.86298723E-06 -0.10560347E-05 -0.29106161E-05
 -0.46905342E-05 -0.63863508E-05 -0.79894478E-05 -0.94920569E-05 -0.10887283E-04
 -0.12169122E-04 -0.13332472E-04 -0.14373139E-04 -0.15287838E-04 -0.16074186E-04
 -0.16730694E-04 -0.17256746E-04 -0.17652583E-04 -0.17919275E-04 -0.18058693E-04
 -0.18073473E-04 -0.17966978E-04 -0.17743259E-04 -0.17407011E-04 -0.16963523E-04
 -0.16418630E-04 -0.15778664E-04 -0.15050396E-04 -0.14240986E-04 -0.13357927E-04
 -0.12408985E-04 -0.11402148E-04 -0.10345565E-04 -0.92474968E-05 -0.81162529E-05
 -0.69601434E-05 -0.57874246E-05 -0.46062478E-05 -0.34246109E-05 -0.22503112E-05
 -0.10909010E-05  0.46353994E-07  0.11545139E-05  0.22270006E-05  0.32576308E-05
  0.42406457E-05  0.51707369E-05  0.60430701E-05  0.68533037E-05  0.75976052E-05
  0.82726630E-05  0.88756957E-05  0.94044570E-05  0.98572376E-05  0.10232863E-04
  0.10530691E-04  0.10750598E-04  0.10892974E-04  0.10958705E-04  0.10949156E-04
  0.10866153E-04  0.10711959E-04  0.10489249E-04  0.10201087E-04  0.98508938E-05
  0.94424194E-05  0.89797104E-05  0.84670775E-05  0.79090624E-05  0.73104027E-05
  0.66759976E-05  0.60108725E-05  0.53201435E-05  0.46089829E-05  0.38825840E-05
  0.31461273E-05  0.24047470E-05  0.16634989E-05  0.92732868E-06  0.20104287E-06
 -0.51072004E-06 -0.12035161E-05 -0.18731208E-05 -0.25155520E-05 -0.31270910E-05
 -0.37043010E-05 -0.42440444E-05 -0.47434967E-05 -0.52001587E-05 -0.56118663E-05
 -0.59767977E-05 -0.62934789E-05 -0.65607860E-05 -0.67779456E-05 -0.69445331E-05
 -0.70604685E-05 -0.71260099E-05 -0.71417454E-05 -0.71085830E-05 -0.70277375E-05
 -0.69007177E-05 -0.67293097E-05 -0.65155604E-05 -0.62617588E-05 -0.59704162E-05
 -0.56442454E-05 -0.52861388E-05 -0.48991460E-05 -0.44864509E-05 -0.40513473E-05
 -0.35972158E-05 -0.31274995E-05 -0.26456799E-05 -0.21552530E-05 -0.16597063E-05
 -0.11624950E-05 -0.66702059E-06 -0.17660835E-06  0.30551283E-06  0.77623042E-06
  0.12325668E-05  0.16716965E-05  0.20909626E-05  0.24878911E-05  0.28602043E-05
  0.32058323E-05  0.35229234E-05  0.38098522E-05  0.40652267E-05  0.42878934E-05
  0.44769406E-05  0.46317005E-05  0.47517490E-05  0.48369048E-05  0.48872256E-05
  0.49030043E-05  0.48847621E-05  0.48332418E-05  0.47493983E-05  0.46343889E-05
  0.44895616E-05  0.43164433E-05  0.41167258E-05  0.38922519E-05  0.36450002E-05
  0.33770697E-05  0.30906632E-05  0.27880709E-05  0.24716533E-05  0.21438242E-05
  0.18070330E-05  0.14637484E-05  0.11164404E-05  0.76756416E-06  0.41954332E-06
  0.74754270E-07 -0.26448932E-06 -0.59595107E-06 -0.91748584E-06 -0.12270528E-05
 -0.15227274E-05 -0.18027128E-05 -0.20653498E-05 -0.23091259E-05 -0.25326831E-05
 -0.27348250E-05 -0.29145215E-05 -0.30709141E-05 -0.32033182E-05 -0.33112250E-05
 -0.33943027E-05 -0.34523951E-05 -0.34855205E-05 -0.34938683E-05 -0.34777950E-05
 -0.34378193E-05 -0.33746157E-05 -0.32890076E-05 -0.31819589E-05 -0.30545657E-05
 -0.29080461E-05 -0.27437302E-05 -0.25630494E-05 -0.23675243E-05 -0.21587538E-05
 -0.19384018E-05 -0.17081858E-05 -0.14698634E-05 -0.12252202E-05 -0.97605653E-06
 -0.72417545E-06 -0.47136979E-06 -0.21941025E-06  0.29966557E-07  0.27506948E-06
  0.51426380E-06  0.74598157E-06  0.96873144E-06  0.11811077E-05  0.13817988E-05
  0.15695945E-05  0.17433932E-05  0.19022078E-05  0.20451701E-05  0.21715358E-05
  0.22806874E-05  0.23721363E-05  0.24455244E-05  0.25006249E-05  0.25373411E-05
  0.25557058E-05  0.25558788E-05  0.25381437E-05  0.25029044E-05  0.24506801E-05
  0.23821004E-05  0.22978988E-05  0.21989063E-05  0.20860441E-05  0.19603159E-05
  0.18227996E-05  0.16746387E-05  0.15170335E-05  0.13512317E-05  0.11785193E-05
  0.10002109E-05  0.81764002E-06  0.63214984E-06  0.44508353E-06  0.25777493E-06
  0.71539464E-07 -0.11233481E-06 -0.29259571E-06 -0.46803513E-06 -0.63749680E-06
 -0.79988356E-06 -0.95416415E-06 -0.10993794E-05 -0.12346479E-05 -0.13591708E-05
 -0.14722366E-05 -0.15732242E-05 -0.16616066E-05 -0.17369526E-05 -0.17989287E-05
 -0.18473000E-05 -0.18819303E-05 -0.19027815E-05 -0.19099129E-05 -0.19034787E-05
 -0.18837261E-05 -0.18509919E-05 -0.18056989E-05 -0.17483519E-05 -0.16795325E-05
 -0.15998945E-05 -0.15101579E-05 -0.14111030E-05 -0.13035640E-05 -0.11884226E-05
 -0.10666009E-05 -0.93905434E-06 -0.80676488E-06 -0.67073334E-06 -0.53197230E-06
 -0.39149882E-06 -0.25032725E-06 -0.10946212E-06  0.30108718E-07  0.16742078E-06
  0.30153942E-06  0.43156592E-06  0.55664327E-06  0.67596164E-06  0.78876335E-06
  0.89434743E-06  0.99207377E-06  0.10813667E-05  0.11617182E-05  0.12326905E-05
  0.12939179E-05  0.13451087E-05  0.13860459E-05  0.14165881E-05  0.14366687E-05
  0.14462959E-05  0.14455516E-05  0.14345892E-05  0.14136323E-05  0.13829715E-05
  0.13429618E-05  0.12940189E-05  0.12366157E-05  0.11712781E-05  0.10985803E-05
  0.10191406E-05  0.93361568E-06  0.84269629E-06  0.74710130E-06  0.64757247E-06
  0.54486890E-06  0.43976141E-06  0.33302697E-06  0.22544313E-06  0.11778255E-06
  0.10807614E-07 -0.94734804E-07 -0.19811837E-06 -0.29864215E-06 -0.39563515E-06
 -0.48846069E-06 -0.57652036E-06 -0.65925776E-06 -0.73616179E-06 -0.80676968E-06
 -0.87066953E-06 -0.92750256E-06 -0.97696488E-06 -0.10188089E-05 -0.10528443E-05
 -0.10789384E-05 -0.10970168E-05 -0.11070626E-05 -0.11091158E-05 -0.11032724E-05
 -0.10896831E-05 -0.10685511E-05 -0.10401301E-05 -0.10047220E-05 -0.96267373E-06
 -0.91437468E-06 -0.86025295E-06 -0.80077198E-06 -0.73642677E-06 -0.66773996E-06
 -0.59525775E-06 -0.51954573E-06 -0.44118460E-06 -0.36076590E-06 -0.27888766E-06
 -0.19615008E-06 -0.11315128E-06 -0.30483074E-07  0.51273085E-07  0.13155011E-06
  0.20979908E-06  0.28549288E-06  0.35812961E-06  0.42723583E-06  0.49236948E-06
  0.55312261E-06  0.60912380E-06  0.66004028E-06  0.70557978E-06  0.74549205E-06
  0.77957004E-06  0.80765080E-06  0.82961607E-06  0.84539244E-06  0.85495135E-06
  0.85830864E-06  0.85552386E-06  0.84669927E-06  0.83197852E-06  0.81154510E-06
  0.78562051E-06  0.75446219E-06  0.71836119E-06  0.67763970E-06  0.63264834E-06
  0.58376328E-06  0.53138328E-06  0.47592653E-06  0.41782746E-06  0.35753344E-06
  0.29550142E-06  0.23219463E-06  0.16807916E-06  0.10362064E-06  0.39280959E-07
 -0.24484945E-07 -0.87232233E-07 -0.14852917E-06 -0.20796000E-06 -0.26512770E-06
 -0.31965651E-06 -0.37119433E-06 -0.41941492E-06 -0.46401981E-06 -0.50474013E-06
 -0.54133803E-06 -0.57360804E-06 -0.60137804E-06 -0.62451007E-06 -0.64290085E-06
 -0.65648206E-06 -0.66522036E-06 -0.66911716E-06 -0.66820818E-06 -0.66256272E-06
 -0.65228276E-06 -0.63750177E-06 -0.61838340E-06 -0.59511989E-06 -0.56793038E-06
 -0.53705894E-06 -0.50277259E-06 -0.46535906E-06 -0.42512451E-06 -0.38239113E-06
 -0.33749460E-06 -0.29078159E-06 -0.24260717E-06 -0.19333214E-06 -0.14332042E-06
 -0.92936457E-07 -0.42542609E-07  0.75033802E-08  0.56850855E-07  0.10515864E-06
  0.15209734E-06  0.19735151E-06  0.24062170E-06  0.28162639E-06  0.32010376E-06
  0.35581323E-06  0.38853697E-06  0.41808110E-06  0.44427675E-06  0.46698096E-06
  0.48607736E-06  0.50147663E-06  0.51311679E-06  0.52096330E-06  0.52500896E-06
  0.52527356E-06  0.52180348E-06  0.51467094E-06  0.50397320E-06  0.48983156E-06
  0.47239014E-06  0.45181464E-06  0.42829084E-06  0.40202307E-06  0.37323247E-06
  0.34215528E-06  0.30904091E-06  0.27415006E-06  0.23775270E-06  0.20012606E-06
  0.16155256E-06  0.12231776E-06  0.82708277E-07  0.43009780E-07  0.35049465E-08
 -0.35528483E-07 -0.73819613E-07 -0.11110622E-06 -0.14713651E-06 -0.18167073E-06
 -0.21448279E-06 -0.24536159E-06 -0.27411241E-06 -0.30055804E-06 -0.32453982E-06
 -0.34591851E-06 -0.36457510E-06 -0.38041130E-06 -0.39335005E-06 -0.40333577E-06
 -0.41033449E-06 -0.41433380E-06 -0.41534270E-06 -0.41339126E-06 -0.40853012E-06
 -0.40082991E-06 -0.39038047E-06 -0.37728998E-06 -0.36168400E-06 -0.34370433E-06
 -0.32350779E-06 -0.30126499E-06 -0.27715887E-06 -0.25138332E-06 -0.22414164E-06
 -0.19564498E-06 -0.16611079E-06 -0.13576113E-06 -0.10482113E-06 -0.73517290E-07
 -0.42075909E-07 -0.10721455E-07  0.20324982E-07  0.50847219E-07  0.80635441E-07
  0.10948761E-06  0.13721081E-06  0.16362246E-06  0.18855152E-06  0.21183954E-06
  0.23334163E-06  0.25292731E-06  0.27048124E-06  0.28590389E-06  0.29911203E-06
  0.31003909E-06  0.31863548E-06  0.32486868E-06  0.32872330E-06  0.33020096E-06
  0.32932006E-06  0.32611549E-06  0.32063811E-06  0.31295426E-06  0.30314509E-06
  0.29130576E-06  0.27754466E-06  0.26198243E-06  0.24475102E-06  0.22599254E-06
  0.20585821E-06  0.18450712E-06  0.16210506E-06  0.13882324E-06  0.11483700E-06
  0.90324579E-07  0.65465754E-07  0.40440599E-07  0.15428185E-07 -0.93946569E-08
 -0.33854569E-07 -0.57782840E-07 -0.81016546E-07 -0.10339963E-06 -0.12478391E-06
 -0.14503005E-06 -0.16400843E-06 -0.18159993E-06 -0.19769665E-06 -0.21220256E-06
 -0.22503401E-06 -0.23612017E-06 -0.24540340E-06 -0.25283947E-06 -0.25839774E-06
 -0.26206119E-06 -0.26382638E-06 -0.26370334E-06 -0.26171531E-06 -0.25789840E-06
 -0.25230125E-06 -0.24498447E-06 -0.23602009E-06 -0.22549094E-06 -0.21348990E-06
 -0.20011917E-06 -0.18548938E-06 -0.16971876E-06 -0.15293221E-06 -0.13526029E-06
 -0.11683832E-06 -0.97805281E-07 -0.78302842E-07 -0.58474321E-07 -0.38463647E-07
 -0.18414342E-07  0.15314833E-08  0.21234122E-07  0.40557222E-07  0.59368711E-07
  0.77541673E-07  0.94955189E-07  0.11149511E-06  0.12705480E-06  0.14153578E-06
  0.15484832E-06  0.16691200E-06  0.17765615E-06  0.18702023E-06  0.19495413E-06
  0.20141844E-06  0.20638455E-06  0.20983476E-06  0.21176227E-06  0.21217111E-06
  0.21107594E-06  0.20850190E-06  0.20448424E-06  0.19906798E-06  0.19230750E-06
  0.18426600E-06  0.17501501E-06  0.16463374E-06  0.15320846E-06  0.14083180E-06
  0.12760203E-06  0.11362229E-06  0.98999836E-07  0.83845196E-07  0.68271389E-07
  0.52393082E-07  0.36325770E-07  0.20184950E-07  0.40853124E-08 -0.11860061E-07
 -0.27540474E-07 -0.42848364E-07 -0.57680029E-07 -0.71936307E-07 -0.85523225E-07
 -0.98352602E-07 -0.11034260E-06 -0.12141822E-06 -0.13151178E-06 -0.14056326E-06
 -0.14852068E-06 -0.15534036E-06 -0.16098712E-06 -0.16543444E-06 -0.16866454E-06
 -0.17066844E-06 -0.17144587E-06 -0.17100520E-06 -0.16936329E-06 -0.16654527E-06
 -0.16258424E-06 -0.15752100E-06 -0.15140362E-06 -0.14428707E-06 -0.13623273E-06
 -0.12730787E-06 -0.11758513E-06 -0.10714197E-06 -0.96060015E-07 -0.84424489E-07
 -0.72323542E-07 -0.59847609E-07 -0.47088747E-07 -0.34139969E-07 -0.21094580E-07
 -0.80455179E-08  0.49152972E-08  0.17697595E-07  0.30213374E-07  0.42377491E-07
  0.54108231E-07  0.65327839E-07  0.75963026E-07  0.85945431E-07  0.95212048E-07
  0.10370561E-06  0.11137491E-06  0.11817514E-06  0.12406806E-06  0.12902227E-06
  0.13301331E-06  0.13602374E-06  0.13804325E-06  0.13906857E-06  0.13910348E-06
  0.13815867E-06  0.13625159E-06  0.13340627E-06  0.12965307E-06  0.12502838E-06
   13.6060271177683      T
 Non local Part
           2           2   1.49286951573484     
   2.41531889156932        2.03829326141542        2.03829326141542     
   1.67129964007915     
 Reciprocal Space Part
  0.00000000E+00 -0.27629718E+00 -0.10962585E+01 -0.24333365E+01 -0.42440910E+01
 -0.64693746E+01 -0.90359497E+01 -0.11858495E+02 -0.14841946E+02 -0.17884119E+02
 -0.20878534E+02 -0.23717376E+02 -0.26294516E+02 -0.28508507E+02 -0.30265483E+02
 -0.31481877E+02 -0.32086899E+02 -0.32024696E+02 -0.31256145E+02 -0.29760224E+02
 -0.27534933E+02 -0.24597728E+02 -0.20985462E+02 -0.16753827E+02 -0.11976317E+02
 -0.67427190E+01 -0.11571853E+01  0.46640766E+01  0.10595440E+02  0.16504756E+02
  0.22256436E+02  0.27714657E+02  0.32746595E+02  0.37225620E+02  0.41034371E+02
  0.44067627E+02  0.46234923E+02  0.47462821E+02  0.47696808E+02  0.46902749E+02
  0.45067879E+02  0.42201301E+02  0.38333979E+02  0.33518220E+02  0.27826679E+02
  0.21350878E+02  0.14199306E+02  0.64951291E+01 -0.16264381E+01 -0.10021020E+02
 -0.18538176E+02 -0.27024617E+02 -0.35327484E+02 -0.43297590E+02 -0.50792572E+02
 -0.57679869E+02 -0.63839455E+02 -0.69166279E+02 -0.73572347E+02 -0.76988408E+02
 -0.79365206E+02 -0.80674272E+02 -0.80908253E+02 -0.80080764E+02 -0.78225780E+02
 -0.75396593E+02 -0.71664349E+02 -0.67116220E+02 -0.61853257E+02 -0.55987972E+02
 -0.49641713E+02 -0.42941897E+02 -0.36019173E+02 -0.29004567E+02 -0.22026693E+02
 -0.15209082E+02 -0.86676868E+01 -0.25086319E+01  0.31737664E+01  0.82986529E+01
  0.12799937E+02  0.16627225E+02  0.19746362E+02  0.22139594E+02  0.23805341E+02
  0.24757614E+02  0.25025085E+02  0.24649848E+02  0.23685920E+02  0.22197502E+02
  0.20257078E+02  0.17943373E+02  0.15339258E+02  0.12529615E+02  0.95992516E+01
  0.66308939E+01  0.37033060E+01  0.88958577E+00 -0.17443341E+01 -0.41409464E+01
 Real Space Part
  0.00000000E+00 -0.43695182E+00 -0.17430221E+01 -0.39038961E+01 -0.68958511E+01
 -0.10685959E+02 -0.15232369E+02 -0.20484664E+02 -0.26384303E+02 -0.32865123E+02
 -0.39853925E+02 -0.47271120E+02 -0.55031440E+02 -0.63044709E+02 -0.71216673E+02
 -0.79449868E+02 -0.87644546E+02 -0.95699629E+02 -0.10351370E+03 -0.11098600E+03
 -0.11801748E+03 -0.12451181E+03 -0.13037644E+03 -0.13552361E+03 -0.13987135E+03
 -0.14334446E+03 -0.14587547E+03 -0.14740551E+03 -0.14788518E+03 -0.14727525E+03
 -0.14554743E+03 -0.14268492E+03 -0.13868294E+03 -0.13354912E+03 -0.12730380E+03
 -0.11998021E+03 -0.11162446E+03 -0.10229551E+03 -0.92064884E+02 -0.81016313E+02
 -0.69245209E+02 -0.56857983E+02 -0.43971223E+02 -0.30710721E+02 -0.17210354E+02
 -0.36108208E+01  0.99417528E+01  0.23297346E+02  0.36303686E+02  0.48808007E+02
  0.60658910E+02  0.71708295E+02  0.81813378E+02  0.90838748E+02  0.98658468E+02
  0.10515819E+03  0.11023724E+03  0.11381076E+03  0.11581165E+03  0.11619265E+03
  0.11492810E+03  0.11201578E+03  0.10747850E+03  0.10136555E+03  0.93753982E+02
  0.84749710E+02  0.74488315E+02  0.63135675E+02  0.50888298E+02  0.37973384E+02
  0.24648614E+02  0.11201627E+02 -0.20508194E+01 -0.14764301E+02 -0.26572186E+02
 -0.37116109E+02 -0.47325704E+02 -0.57544081E+02 -0.67306033E+02 -0.76146812E+02
 -0.83588284E+02 -0.89141833E+02 -0.92312518E+02 -0.92603115E+02 -0.89518326E+02
 -0.82568204E+02 -0.71266853E+02 -0.55198564E+02 -0.34110299E+02 -0.48704636E+01
 -0.21292564E+00  0.12726127E+00 -0.11320501E-01 -0.19698813E-02  0.62779575E-03
 -0.54932735E-04 -0.91309050E-05  0.35408939E-05 -0.52494784E-06  0.00000000E+00
 Reciprocal Space Part
  0.00000000E+00  0.28158950E+00  0.11174743E+01  0.24812433E+01  0.43296732E+01
  0.66038984E+01  0.92310076E+01  0.12126024E+02  0.15194220E+02  0.18333701E+02
  0.21438202E+02  0.24400011E+02  0.27112957E+02  0.29475371E+02  0.31392955E+02
  0.32781482E+02  0.33569243E+02  0.33699202E+02  0.33130776E+02  0.31841209E+02
  0.29826500E+02  0.27101851E+02  0.23701634E+02  0.19678868E+02  0.15104210E+02
  0.10064500E+02  0.46608840E+01 -0.99344865E+00 -0.67758360E+01 -0.12556982E+02
 -0.18203980E+02 -0.23583457E+02 -0.28564749E+02 -0.33023043E+02 -0.36842402E+02
 -0.39918602E+02 -0.42161701E+02 -0.43498295E+02 -0.43873395E+02 -0.43251876E+02
 -0.41619474E+02 -0.38983297E+02 -0.35371842E+02 -0.30834520E+02 -0.25440696E+02
 -0.19278269E+02 -0.12451827E+02 -0.50804266E+01  0.27049618E+01  0.10764270E+02
  0.18951347E+02  0.27117105E+02  0.35112715E+02  0.42792781E+02  0.50018423E+02
  0.56660191E+02  0.62600752E+02  0.67737276E+02  0.71983487E+02  0.75271321E+02
  0.77552164E+02  0.78797643E+02  0.78999956E+02  0.78171750E+02  0.76345537E+02
  0.73572683E+02  0.69922004E+02  0.65477984E+02  0.60338686E+02  0.54613407E+02
  0.48420111E+02  0.41882745E+02  0.35128460E+02  0.28284833E+02  0.21477141E+02
  0.14825754E+02  0.84436954E+01  0.24344437E+01 -0.31100058E+01 -0.81107594E+01
 -0.12503302E+02 -0.16238412E+02 -0.19282699E+02 -0.21618764E+02 -0.23244986E+02
 -0.24174958E+02 -0.24436580E+02 -0.24070860E+02 -0.23130447E+02 -0.21677945E+02
 -0.19784050E+02 -0.17525568E+02 -0.14983362E+02 -0.12240273E+02 -0.93790867E+01
 -0.64805648E+01 -0.36216163E+01 -0.87362893E+00  0.16989958E+01  0.40400748E+01
 Real Space Part
  0.00000000E+00  0.43156860E+00  0.17215758E+01  0.38559653E+01  0.68114431E+01
  0.10555675E+02  0.15047563E+02  0.20237596E+02  0.26068282E+02  0.32474638E+02
  0.39384769E+02  0.46720493E+02  0.54398045E+02  0.62328828E+02  0.70420224E+02
  0.78576453E+02  0.86699469E+02  0.94689905E+02  0.10244803E+03  0.10987475E+03
  0.11687262E+03  0.12334684E+03  0.12920627E+03  0.13436446E+03  0.13874062E+03
  0.14226059E+03  0.14485773E+03  0.14647384E+03  0.14705995E+03  0.14657711E+03
  0.14499701E+03  0.14230263E+03  0.13848871E+03  0.13356216E+03  0.12754235E+03
  0.12046125E+03  0.11236350E+03  0.10330631E+03  0.93359237E+02  0.82603813E+02
  0.71133034E+02  0.59050701E+02  0.46470619E+02  0.33515644E+02  0.20316593E+02
  0.70110107E+01 -0.62581983E+01 -0.19344261E+02 -0.32098146E+02 -0.44370283E+02
 -0.56012380E+02 -0.66879318E+02 -0.76831121E+02 -0.85734972E+02 -0.93467269E+02
 -0.99915689E+02 -0.10498126E+03 -0.10858039E+03 -0.11064687E+03 -0.11113382E+03
 -0.11001548E+03 -0.10728897E+03 -0.10297587E+03 -0.97123663E+02 -0.89806962E+02
 -0.81128590E+02 -0.71220401E+02 -0.60243882E+02 -0.48390490E+02 -0.35881718E+02
 -0.22968893E+02 -0.99326720E+01  0.29177735E+01  0.15246174E+02  0.26694491E+02
  0.36912687E+02  0.46809194E+02  0.56719561E+02  0.66189499E+02  0.74765053E+02
  0.81979072E+02  0.87354054E+02  0.90406212E+02  0.90649422E+02  0.87599351E+02
  0.80776802E+02  0.69706451E+02  0.53981513E+02  0.33354164E+02  0.47621584E+01
  0.20818960E+00 -0.12443064E+00  0.11068703E-01  0.19260658E-02 -0.61383190E-03
  0.53710885E-04  0.89278094E-05 -0.34621349E-05  0.51327160E-06  0.00000000E+00
 Non local Part
           0           2   1.49286951573484     
   3.19822574830765        7.15691443895347        7.15691443895347     
   16.2191882622852     
 Reciprocal Space Part
 -0.67142386E+01 -0.69252483E+01 -0.75543012E+01 -0.85895466E+01 -0.10011492E+02
 -0.11793385E+02 -0.13901738E+02 -0.16296979E+02 -0.18934227E+02 -0.21764158E+02
 -0.24733963E+02 -0.27788358E+02 -0.30870644E+02 -0.33923783E+02 -0.36891469E+02
 -0.39719174E+02 -0.42355157E+02 -0.44751393E+02 -0.46864430E+02 -0.48656142E+02
 -0.50094363E+02 -0.51153399E+02 -0.51814410E+02 -0.52065643E+02 -0.51902525E+02
 -0.51327621E+02 -0.50350446E+02 -0.48987143E+02 -0.47260047E+02 -0.45197133E+02
 -0.42831360E+02 -0.40199946E+02 -0.37343570E+02 -0.34305524E+02 -0.31130844E+02
 -0.27865431E+02 -0.24555171E+02 -0.21245096E+02 -0.17978579E+02 -0.14796590E+02
 -0.11737028E+02 -0.88341315E+01 -0.61179922E+01 -0.36141606E+01 -0.13433638E+01
  0.67867069E+00  0.24412820E+01  0.39388379E+01  0.51705955E+01  0.61404685E+01
  0.68567086E+01  0.73315126E+01  0.75805659E+01  0.76225359E+01  0.74785278E+01
  0.71715165E+01  0.67257688E+01  0.61662686E+01  0.55181581E+01  0.48062064E+01
  0.40543161E+01  0.32850783E+01  0.25193814E+01  0.17760824E+01  0.10717432E+01
  0.42043515E+00 -0.16638668E+00 -0.67994184E+00 -0.11141163E+01 -0.14653925E+01
 -0.17327228E+01 -0.19173524E+01 -0.20225992E+01 -0.20535982E+01 -0.20170196E+01
 -0.19207679E+01 -0.17736726E+01 -0.15851763E+01 -0.13650309E+01 -0.11230073E+01
 -0.86862558E+00 -0.61091225E+00 -0.35818822E+00 -0.11789143E+00  0.10356324E+00
  0.30088564E+00  0.46997322E+00  0.60793603E+00  0.71308556E+00  0.78489014E+00
  0.82390028E+00  0.83164810E+00  0.81052532E+00  0.76364470E+00  0.69468997E+00
  0.60775941E+00  0.50720789E+00  0.39749224E+00  0.28302420E+00  0.16803481E+00
 Real Space Part
 -0.72896419E+02 -0.72880362E+02 -0.72832107E+02 -0.72751398E+02 -0.72637814E+02
 -0.72490770E+02 -0.72309524E+02 -0.72093187E+02 -0.71840730E+02 -0.71550995E+02
 -0.71222707E+02 -0.70854491E+02 -0.70444882E+02 -0.69992347E+02 -0.69495296E+02
 -0.68952107E+02 -0.68361140E+02 -0.67720758E+02 -0.67029351E+02 -0.66285350E+02
 -0.65487256E+02 -0.64633655E+02 -0.63723242E+02 -0.62754841E+02 -0.61727428E+02
 -0.60640148E+02 -0.59492336E+02 -0.58283538E+02 -0.57013524E+02 -0.55682310E+02
 -0.54290170E+02 -0.52837652E+02 -0.51325592E+02 -0.49755123E+02 -0.48127685E+02
 -0.46445036E+02 -0.44709255E+02 -0.42922748E+02 -0.41088250E+02 -0.39208824E+02
 -0.37287862E+02 -0.35329081E+02 -0.33336515E+02 -0.31314509E+02 -0.29267710E+02
 -0.27201052E+02 -0.25119746E+02 -0.23029261E+02 -0.20935311E+02 -0.18843828E+02
 -0.16760950E+02 -0.14692989E+02 -0.12646415E+02 -0.10627824E+02 -0.86439168E+01
 -0.67014651E+01 -0.48072866E+01 -0.29682135E+01 -0.11910619E+01  0.51739858E+00
  0.21504773E+01  0.37015936E+01  0.51643090E+01  0.65323585E+01  0.77996819E+01
  0.89604551E+01  0.10009120E+02  0.10940412E+02  0.11749394E+02  0.12431477E+02
  0.12982449E+02  0.13398501E+02  0.13676247E+02  0.13812754E+02  0.13805672E+02
  0.13654048E+02  0.13394815E+02  0.13052693E+02  0.12631280E+02  0.12134797E+02
  0.11567595E+02  0.10934117E+02  0.10238889E+02  0.94865114E+01  0.86816333E+01
  0.78289528E+01  0.69331854E+01  0.59990720E+01  0.50313353E+01  0.40348324E+01
  0.30141574E+01  0.19693750E+01  0.93144588E+00 -0.51936400E-01  0.16506393E-01
 -0.14443254E-02 -0.24007539E-03  0.93099366E-04 -0.13802252E-04  0.00000000E+00
 Reciprocal Space Part
  0.13588813E+02  0.13651112E+02  0.13836637E+02  0.14141294E+02  0.14558356E+02
  0.15078597E+02  0.15690487E+02  0.16380419E+02  0.17132998E+02  0.17931345E+02
  0.18757447E+02  0.19592518E+02  0.20417380E+02  0.21212845E+02  0.21960101E+02
  0.22641084E+02  0.23238829E+02  0.23737805E+02  0.24124210E+02  0.24386232E+02
  0.24514266E+02  0.24501083E+02  0.24341955E+02  0.24034722E+02  0.23579807E+02
  0.22980184E+02  0.22241293E+02  0.21370900E+02  0.20378930E+02  0.19277239E+02
  0.18079368E+02  0.16800263E+02  0.15455967E+02  0.14063307E+02  0.12639567E+02
  0.11202156E+02  0.97682915E+01  0.83546846E+01  0.69772510E+01  0.56508422E+01
  0.43890066E+01  0.32037844E+01  0.21055381E+01  0.11028222E+01  0.20229434E+00
 -0.59133356E+00 -0.12753026E+01 -0.18487748E+01 -0.23127635E+01 -0.26700287E+01
 -0.29249418E+01 -0.30833224E+01 -0.31522535E+01 -0.31398785E+01 -0.30551855E+01
 -0.29077848E+01 -0.27076842E+01 -0.24650671E+01 -0.21900784E+01 -0.18926225E+01
 -0.15821774E+01 -0.12676283E+01 -0.95712365E+00 -0.65795517E+00 -0.37646433E+00
 -0.11797538E+00  0.11324467E+00  0.31399965E+00  0.48215249E+00  0.61658984E+00
  0.71716516E+00  0.78462287E+00  0.82050654E+00  0.82705408E+00  0.80708341E+00
  0.76387194E+00  0.70103318E+00  0.62239372E+00  0.53187372E+00  0.43337362E+00
  0.33066965E+00  0.22732027E+00  0.12658520E+00  0.31358441E-01 -0.55883898E-01
 -0.13312048E+00 -0.19880640E+00 -0.25187996E+00 -0.29175541E+00 -0.31830265E+00
 -0.33181548E+00 -0.33296988E+00 -0.32277418E+00 -0.30251311E+00 -0.27368768E+00
 -0.23795287E+00 -0.19705510E+00 -0.15277132E+00 -0.10685138E+00 -0.60965146E-01
 Real Space Part
  0.32675019E+02  0.32668395E+02  0.32648485E+02  0.32615180E+02  0.32568296E+02
  0.32507582E+02  0.32432716E+02  0.32343313E+02  0.32238928E+02  0.32119059E+02
  0.31983152E+02  0.31830611E+02  0.31660799E+02  0.31473049E+02  0.31266666E+02
  0.31040944E+02  0.30795163E+02  0.30528605E+02  0.30240561E+02  0.29930337E+02
  0.29597268E+02  0.29240722E+02  0.28860110E+02  0.28454899E+02  0.28024615E+02
  0.27568856E+02  0.27087297E+02  0.26579702E+02  0.26045926E+02  0.25485928E+02
  0.24899775E+02  0.24287646E+02  0.23649842E+02  0.22986789E+02  0.22299040E+02
  0.21587283E+02  0.20852339E+02  0.20095168E+02  0.19316867E+02  0.18518674E+02
  0.17701964E+02  0.16868248E+02  0.16019174E+02  0.15156520E+02  0.14282194E+02
  0.13398224E+02  0.12506758E+02  0.11610054E+02  0.10710474E+02  0.98104747E+01
  0.89126022E+01  0.80194791E+01  0.71337957E+01  0.62583001E+01  0.53957860E+01
  0.45490819E+01  0.37210386E+01  0.29145169E+01  0.21323749E+01  0.13774550E+01
  0.65257107E+00 -0.39505214E-01 -0.69605733E+00 -0.13144371E+01 -0.18920781E+01
 -0.24265079E+01 -0.29153613E+01 -0.33563928E+01 -0.37474876E+01 -0.40866740E+01
 -0.43721340E+01 -0.46022136E+01 -0.47754324E+01 -0.48904955E+01 -0.49463428E+01
 -0.49424540E+01 -0.48925586E+01 -0.48060495E+01 -0.46844739E+01 -0.45296147E+01
 -0.43433079E+01 -0.41274273E+01 -0.38838809E+01 -0.36146066E+01 -0.33215633E+01
 -0.30067299E+01 -0.26720928E+01 -0.23196491E+01 -0.19513889E+01 -0.15693556E+01
 -0.11754889E+01 -0.76994812E+00 -0.36503500E+00  0.20375278E-01 -0.64752811E-02
  0.56659336E-03  0.94179001E-04 -0.36521883E-04  0.54144757E-05  0.00000000E+00
 Non local Part
           1           2   1.49286951573484     
   9.74589076381859        13.0212975095882        13.0212975095882     
   17.3777085162268     
 Reciprocal Space Part
  0.00000000E+00  0.69343130E+00  0.13636732E+01  0.19880798E+01  0.25450799E+01
  0.30146813E+01  0.33789383E+01  0.36223700E+01  0.37323194E+01  0.36992465E+01
  0.35169459E+01  0.31826875E+01  0.26972735E+01  0.20650150E+01  0.12936252E+01
  0.39403585E+00 -0.61986074E+00 -0.17315355E+01 -0.29222050E+01 -0.41712623E+01
 -0.54567451E+01 -0.67558314E+01 -0.80453475E+01 -0.93022796E+01 -0.10504274E+02
 -0.11630116E+02 -0.12660176E+02 -0.13576811E+02 -0.14364718E+02 -0.15011224E+02
 -0.15506512E+02 -0.15843784E+02 -0.16019342E+02 -0.16032606E+02 -0.15886056E+02
 -0.15585113E+02 -0.15137946E+02 -0.14555235E+02 -0.13849872E+02 -0.13036629E+02
 -0.12131793E+02 -0.11152769E+02 -0.10117685E+02 -0.90449803E+01 -0.79530112E+01
 -0.68596665E+01 -0.57820107E+01 -0.47359595E+01 -0.37359941E+01 -0.27949205E+01
 -0.19236774E+01 -0.11311957E+01 -0.42431073E+00  0.19227258E+00  0.71596326E+00
  0.11462191E+01  0.14844366E+01  0.17338006E+01  0.18990996E+01  0.19865126E+01
  0.20033748E+01  0.19579283E+01  0.18590661E+01  0.17160745E+01  0.15383831E+01
  0.13353254E+01  0.11159186E+01  0.88866511E+00  0.66138073E+00  0.44105243E+00
  0.23372750E+00  0.44435331E-01 -0.12285801E+00 -0.26526336E+00 -0.38095170E+00
 -0.46910941E+00 -0.52986876E+00 -0.56421704E+00 -0.57388829E+00 -0.56124210E+00
 -0.52913353E+00 -0.48077882E+00 -0.41962087E+00 -0.34919871E+00 -0.27302441E+00
 -0.19447063E+00 -0.11667168E+00 -0.42439877E-01  0.25801023E-01  0.86064611E-01
  0.13683245E+00  0.17706688E+00  0.20620689E+00  0.22414820E+00  0.23120963E+00
  0.22808740E+00  0.21580009E+00  0.19562651E+00  0.16903904E+00  0.13763521E+00
 Real Space Part
  0.00000000E+00 -0.96504321E+00 -0.19276914E+01 -0.28855531E+01 -0.38362445E+01
 -0.47773931E+01 -0.57066417E+01 -0.66216520E+01 -0.75201094E+01 -0.83997270E+01
 -0.92582500E+01 -0.10093460E+02 -0.10903182E+02 -0.11685286E+02 -0.12437694E+02
 -0.13158388E+02 -0.13845412E+02 -0.14496880E+02 -0.15110980E+02 -0.15685984E+02
 -0.16220253E+02 -0.16712242E+02 -0.17160508E+02 -0.17563717E+02 -0.17920652E+02
 -0.18230218E+02 -0.18491448E+02 -0.18703515E+02 -0.18865730E+02 -0.18977556E+02
 -0.19038613E+02 -0.19048677E+02 -0.19007696E+02 -0.18915786E+02 -0.18773239E+02
 -0.18580528E+02 -0.18338309E+02 -0.18047422E+02 -0.17708896E+02 -0.17323948E+02
 -0.16893986E+02 -0.16420602E+02 -0.15905579E+02 -0.15350883E+02 -0.14758661E+02
 -0.14131236E+02 -0.13471105E+02 -0.12780927E+02 -0.12063520E+02 -0.11321853E+02
 -0.10559032E+02 -0.97782960E+01 -0.89829993E+01 -0.81766043E+01 -0.73626661E+01
 -0.65448190E+01 -0.57267622E+01 -0.49122440E+01 -0.41050460E+01 -0.33089668E+01
 -0.25278044E+01 -0.17653395E+01 -0.10253171E+01 -0.31142913E+00  0.37270409E+00
  0.10235515E+01  0.16376894E+01  0.22118193E+01  0.27427852E+01  0.32275908E+01
  0.36634156E+01  0.40476313E+01  0.43778166E+01  0.46517734E+01  0.48675693E+01
  0.50237590E+01  0.51293585E+01  0.51913264E+01  0.52113108E+01  0.51911714E+01
  0.51328514E+01  0.50383660E+01  0.49097976E+01  0.47492917E+01  0.45590473E+01
  0.43413145E+01  0.40983810E+01  0.38325737E+01  0.35462415E+01  0.32417566E+01
  0.29215011E+01  0.25878622E+01  0.22432249E+01  0.18899606E+01  0.15304663E+01
  0.11668917E+01  0.80138504E+00  0.44292689E+00  0.53658660E-01  0.00000000E+00
 Reciprocal Space Part
  0.00000000E+00  0.62725870E-01  0.13397192E+00  0.22201754E+00  0.33466673E+00
  0.47902565E+00  0.66129813E+00  0.88660420E+00  0.11588264E+01  0.14804879E+01
  0.18526648E+01  0.22749363E+01  0.27453719E+01  0.32605579E+01  0.38156610E+01
  0.44045279E+01  0.50198190E+01  0.56531704E+01  0.62953837E+01  0.69366345E+01
  0.75666986E+01  0.81751862E+01  0.87517815E+01  0.92864799E+01  0.97698173E+01
  0.10193086E+02  0.10548533E+02  0.10829534E+02  0.11030739E+02  0.11148194E+02
  0.11179418E+02  0.11123457E+02  0.10980896E+02  0.10753837E+02  0.10445845E+02
  0.10061857E+02  0.96080685E+01  0.90917866E+01  0.85212643E+01  0.79055167E+01
  0.72541231E+01  0.65770219E+01  0.58843011E+01  0.51859921E+01  0.44918695E+01
  0.38112622E+01  0.31528809E+01  0.25246638E+01  0.19336452E+01  0.13858492E+01
  0.88620922E+00  0.43851531E+00  0.45389644E-01 -0.29171099E+00 -0.57246614E+00
 -0.79763807E+00 -0.96899582E+00 -0.10892197E+01 -0.11617896E+01 -0.11908597E+01
 -0.11811252E+01 -0.11376817E+01 -0.10658850E+01 -0.97121079E+00 -0.85912069E+00
 -0.73493648E+00 -0.60372539E+00 -0.47019893E+00 -0.33862715E+00 -0.21276962E+00
 -0.95824002E-01  0.96073949E-02  0.10153327E+00  0.17857186E+00  0.23993340E+00
  0.28538798E+00  0.31522056E+00  0.33017525E+00  0.33139108E+00  0.32033154E+00
  0.29871038E+00  0.26841606E+00  0.23143694E+00  0.18978956E+00  0.14545178E+00
  0.10030240E+00  0.56068740E-01  0.14283052E-01 -0.23751361E-01 -0.56984085E-01
 -0.84631469E-01 -0.10618074E+00 -0.12138488E+00 -0.13024912E+00 -0.13301004E+00
 -0.13010842E+00 -0.12215730E+00 -0.10990641E+00 -0.94204690E-01 -0.75961967E-01
 Real Space Part
  0.00000000E+00  0.63513890E+00  0.12688125E+01  0.18995577E+01  0.25259151E+01
  0.31464318E+01  0.37596631E+01  0.43641746E+01  0.49585448E+01  0.55413676E+01
  0.61112542E+01  0.66668364E+01  0.72067693E+01  0.77297337E+01  0.82344401E+01
  0.87196310E+01  0.91840849E+01  0.96266197E+01  0.10046096E+02  0.10441422E+02
  0.10811557E+02  0.11155512E+02  0.11472362E+02  0.11761242E+02  0.12021354E+02
  0.12251974E+02  0.12452451E+02  0.12622218E+02  0.12760788E+02  0.12867766E+02
  0.12942847E+02  0.12985823E+02  0.12996585E+02  0.12975126E+02  0.12921546E+02
  0.12836053E+02  0.12718965E+02  0.12570714E+02  0.12391843E+02  0.12183014E+02
  0.11945002E+02  0.11678698E+02  0.11385108E+02  0.11065353E+02  0.10720665E+02
  0.10352387E+02  0.99619696E+01  0.95509656E+01  0.91210284E+01  0.86739063E+01
  0.82114372E+01  0.77355425E+01  0.72482210E+01  0.67515415E+01  0.62476351E+01
  0.57386874E+01  0.52269299E+01  0.47146303E+01  0.42040836E+01  0.36976023E+01
  0.31975058E+01  0.27061102E+01  0.22257177E+01  0.17586058E+01  0.13070161E+01
  0.87314381E+00  0.45912649E+00  0.67033418E-01 -0.30114518E+00 -0.64350853E+00
 -0.95825550E+00 -0.12436944E+01 -0.14982525E+01 -0.17204854E+01 -0.19090991E+01
 -0.20630516E+01 -0.21861682E+01 -0.22817108E+01 -0.23506247E+01 -0.23939660E+01
 -0.24128433E+01 -0.24084128E+01 -0.23818744E+01 -0.23344699E+01 -0.22674773E+01
 -0.21822093E+01 -0.20800057E+01 -0.19622333E+01 -0.18302774E+01 -0.16855408E+01
 -0.15294371E+01 -0.13633869E+01 -0.11888141E+01 -0.10071385E+01 -0.81979735E+00
 -0.62809544E+00 -0.43333922E+00 -0.24057274E+00 -0.29230272E-01  0.00000000E+00
 PAW radial sets
         353   1.22955188457539     
(5E20.12)                                
 augmentation charges (non sperical)
  0.267194859240E+00  0.263088057983E+00 -0.151969066774E+00 -0.322663859087E+00 -0.300567835283E+00
 -0.398344453935E+00  0.263088057983E+00  0.258974745642E+00 -0.152164081710E+00 -0.323265484417E+00
 -0.301030760031E+00 -0.399308264563E+00 -0.151969066774E+00 -0.152164081710E+00 -0.180027160942E-01
 -0.586262239994E-01 -0.930172240756E-02 -0.454419636714E-01 -0.322663859087E+00 -0.323265484417E+00
 -0.586262239994E-01 -0.173613247506E+00 -0.522422044480E-01 -0.148342972491E+00 -0.300567835283E+00
 -0.301030760031E+00 -0.930172240756E-02 -0.522422044480E-01  0.296479879828E-01 -0.155463049818E-01
 -0.398344453935E+00 -0.399308264563E+00 -0.454419636714E-01 -0.148342972491E+00 -0.155463049818E-01
 -0.106404722576E+00
 uccopancies in atom
  0.100000000180E+01  0.000000000000E+00  0.000000000000E+00  0.000000000000E+00  0.000000000000E+00
  0.000000000000E+00  0.000000000000E+00  0.000000000000E+00  0.000000000000E+00  0.000000000000E+00
  0.000000000000E+00  0.000000000000E+00  0.000000000000E+00  0.000000000000E+00  0.100000000078E+01
  0.000000000000E+00  0.000000000000E+00  0.000000000000E+00  0.000000000000E+00  0.000000000000E+00
  0.000000000000E+00  0.000000000000E+00  0.000000000000E+00  0.000000000000E+00  0.000000000000E+00
  0.000000000000E+00  0.000000000000E+00  0.000000000000E+00  0.000000000000E+00  0.000000000000E+00
  0.000000000000E+00  0.000000000000E+00  0.000000000000E+00  0.000000000000E+00  0.000000000000E+00
  0.000000000000E+00
 grid
  0.532054236513E-04  0.549355312971E-04  0.567218977275E-04  0.585663523378E-04  0.604707840107E-04
  0.624371430505E-04  0.644674431809E-04  0.665637636065E-04  0.687282511428E-04  0.709631224139E-04
  0.732706661235E-04  0.756532453978E-04  0.781133002064E-04  0.806533498603E-04  0.832759955922E-04
  0.859839232207E-04  0.887799059002E-04  0.916668069613E-04  0.946475828429E-04  0.977252861202E-04
  0.100903068630E-03  0.104184184699E-03  0.107571994478E-03  0.111069967379E-03  0.114681685633E-03
  0.118410847954E-03  0.122261273330E-03  0.126236904934E-03  0.130341814160E-03  0.134580204794E-03
  0.138956417317E-03  0.143474933354E-03  0.148140380261E-03  0.152957535862E-03  0.157931333346E-03
  0.163066866316E-03  0.168369394006E-03  0.173844346669E-03  0.179497331134E-03  0.185334136551E-03
  0.191360740320E-03  0.197583314209E-03  0.204008230677E-03  0.210642069400E-03  0.217491624009E-03
  0.224563909047E-03  0.231866167150E-03  0.239405876471E-03  0.247190758329E-03  0.255228785124E-03
  0.263528188499E-03  0.272097467766E-03  0.280945398618E-03  0.290081042108E-03  0.299513753933E-03
  0.309253194016E-03  0.319309336393E-03  0.329692479433E-03  0.340413256382E-03  0.351482646252E-03
  0.362911985067E-03  0.374712977466E-03  0.386897708699E-03  0.399478656994E-03  0.412468706342E-03
  0.425881159689E-03  0.439729752558E-03  0.454028667120E-03  0.468792546712E-03  0.484036510836E-03
  0.499776170645E-03  0.516027644926E-03  0.532807576607E-03  0.550133149806E-03  0.568022107423E-03
  0.586492769315E-03  0.605564051053E-03  0.625255483295E-03  0.645587231790E-03  0.666580118025E-03
  0.688255640549E-03  0.710635996992E-03  0.733744106794E-03  0.757603634680E-03  0.782239014889E-03
  0.807675476206E-03  0.833939067788E-03  0.861056685849E-03  0.889056101199E-03  0.917965987687E-03
  0.947815951561E-03  0.978636561794E-03  0.101045938138E-02  0.104331699968E-02  0.107724306575E-02
  0.111227232286E-02  0.114844064402E-02  0.118578506875E-02  0.122434384101E-02  0.126415644836E-02
  0.130526366238E-02  0.134770758044E-02  0.139153166884E-02  0.143678080726E-02  0.148350133478E-02
  0.153174109731E-02  0.158154949657E-02  0.163297754071E-02  0.168607789655E-02  0.174090494350E-02
  0.179751482924E-02  0.185596552723E-02  0.191631689611E-02  0.197863074095E-02  0.204297087656E-02
  0.210940319288E-02  0.217799572239E-02  0.224881870985E-02  0.232194468418E-02  0.239744853276E-02
  0.247540757815E-02  0.255590165720E-02  0.263901320290E-02  0.272482732872E-02  0.281343191584E-02
  0.290491770309E-02  0.299937837991E-02  0.309691068229E-02  0.319761449183E-02  0.330159293804E-02
  0.340895250391E-02  0.351980313504E-02  0.363425835216E-02  0.375243536741E-02  0.387445520437E-02
  0.400044282204E-02  0.413052724273E-02  0.426484168425E-02  0.440352369635E-02  0.454671530150E-02
  0.469456314044E-02  0.484721862227E-02  0.500483807953E-02  0.516758292833E-02  0.533561983362E-02
  0.550912087987E-02  0.568826374730E-02  0.587323189388E-02  0.606421474315E-02  0.626140787823E-02
  0.646501324213E-02  0.667523934453E-02  0.689230147533E-02  0.711642192512E-02  0.734783021282E-02
  0.758676332075E-02  0.783346593728E-02  0.808819070745E-02  0.835119849169E-02  0.862275863295E-02
  0.890314923254E-02  0.919265743494E-02  0.949157972185E-02  0.980022221581E-02  0.101189009937E-01
  0.104479424104E-01  0.107876834332E-01  0.111384719865E-01  0.115006673084E-01  0.118746403186E-01
  0.122607739982E-01  0.126594637817E-01  0.130711179624E-01  0.134961581101E-01  0.139350195030E-01
  0.143881515736E-01  0.148560183687E-01  0.153390990249E-01  0.158378882588E-01  0.163528968742E-01
  0.168846522851E-01  0.174336990554E-01  0.180005994569E-01  0.185859340452E-01  0.191903022541E-01
  0.198143230095E-01  0.204586353631E-01  0.211238991470E-01  0.218107956496E-01  0.225200283128E-01
  0.232523234530E-01  0.240084310042E-01  0.247891252868E-01  0.255952057998E-01  0.264274980402E-01
  0.272868543479E-01  0.281741547789E-01  0.290903080064E-01  0.300362522513E-01  0.310129562433E-01
  0.320214202124E-01  0.330626769141E-01  0.341377926860E-01  0.352478685408E-01  0.363940412930E-01
  0.375774847239E-01  0.387994107827E-01  0.400610708287E-01  0.413637569119E-01  0.427088030967E-01
  0.440975868280E-01  0.455315303416E-01  0.470121021210E-01  0.485408184012E-01  0.501192447210E-01
  0.517489975272E-01  0.534317458288E-01  0.551692129072E-01  0.569631780806E-01  0.588154785260E-01
  0.607280111610E-01  0.627027345861E-01  0.647416710907E-01  0.668469087238E-01  0.690206034329E-01
  0.712649812712E-01  0.735823406777E-01  0.759750548311E-01  0.784455740796E-01  0.809964284509E-01
  0.836302302428E-01  0.863496766984E-01  0.891575527685E-01  0.920567339636E-01  0.950501892987E-01
  0.981409843334E-01  0.101332284312E+00  0.104627357405E+00  0.108029578054E+00  0.111542430432E+00
  0.115169512005E+00  0.118914537223E+00  0.122781341318E+00  0.126773884235E+00  0.130896254689E+00
  0.135152674345E+00  0.139547502150E+00  0.144085238791E+00  0.148770531308E+00  0.153608177849E+00
  0.158603132587E+00  0.163760510793E+00  0.169085594071E+00  0.174583835773E+00  0.180260866579E+00
  0.186122500265E+00  0.192174739654E+00  0.198423782771E+00  0.204876029179E+00  0.211538086545E+00
  0.218416777397E+00  0.225519146114E+00  0.232852466145E+00  0.240424247448E+00  0.248242244190E+00
  0.256314462682E+00  0.264649169582E+00  0.273254900358E+00  0.282140468030E+00  0.291314972196E+00
  0.300787808350E+00  0.310568677503E+00  0.320667596122E+00  0.331094906380E+00  0.341861286754E+00
  0.352977762960E+00  0.364455719240E+00  0.376306910024E+00  0.388543471967E+00  0.401177936378E+00
  0.414223242052E+00  0.427692748523E+00  0.441600249742E+00  0.455959988206E+00  0.470786669541E+00
  0.486095477566E+00  0.501902089836E+00  0.518222693705E+00  0.535074002897E+00  0.552473274625E+00
  0.570438327263E+00  0.588987558596E+00  0.608139964658E+00  0.627915159185E+00  0.648333393704E+00
  0.669415578274E+00  0.691183302892E+00  0.713658859610E+00  0.736865265364E+00  0.760826285539E+00
  0.785566458315E+00  0.811111119791E+00  0.837486429932E+00  0.864719399360E+00  0.892837917017E+00
  0.921870778720E+00  0.951847716657E+00  0.982799429833E+00  0.101475761551E+01  0.104775500165E+01
  0.108182538048E+01  0.111700364303E+01  0.115332581491E+01  0.119082909322E+01  0.122955188458E+01
  0.126953384450E+01  0.131081591803E+01  0.135344038160E+01  0.139745088639E+01  0.144289250300E+01
  0.148981176762E+01  0.153825672968E+01  0.158827700104E+01  0.163992380685E+01  0.169325003794E+01
  0.174831030503E+01  0.180516099465E+01  0.186386032687E+01  0.192446841494E+01  0.198704732683E+01
  0.205166114882E+01  0.211837605111E+01  0.218726035559E+01  0.225838460581E+01  0.233182163921E+01
  0.240764666173E+01  0.248593732483E+01  0.256677380498E+01  0.265023888580E+01  0.273641804283E+01
  0.282539953105E+01  0.291727447529E+01  0.301213696352E+01  0.311008414321E+01  0.321121632084E+01
  0.331563706458E+01  0.342345331042E+01  0.353477547161E+01  0.364971755176E+01  0.376839726161E+01
  0.389093613955E+01  0.401745967611E+01  0.414809744244E+01
 aepotential
  0.103664276382E+05  0.105150262680E+05  0.106522105257E+05  0.107770216619E+05  0.108885538458E+05
  0.109859635190E+05  0.110684785704E+05  0.111354142280E+05  0.111861767211E+05  0.112202785585E+05
  0.112373422394E+05  0.112371141223E+05  0.112194606172E+05  0.111843778714E+05  0.111319907230E+05
  0.110625538730E+05  0.109764455743E+05  0.108741688494E+05  0.107563394664E+05  0.106236812448E+05
  0.104770146969E+05  0.103172466892E+05  0.101453583172E+05  0.996239179140E+04  0.976943527913E+04
  0.956761306000E+04  0.935806730889E+04  0.914194742165E+04  0.892039703910E+04  0.869454073957E+04
  0.846547430679E+04  0.823425387682E+04  0.800188811634E+04  0.776933020995E+04  0.753747211026E+04
  0.730714014782E+04  0.707909140856E+04  0.685401192005E+04  0.663251574678E+04  0.641514515630E+04
  0.620237195165E+04  0.599459935273E+04  0.579216484017E+04  0.559534341001E+04  0.540435135277E+04
  0.521935035675E+04  0.504045181659E+04  0.486772127814E+04  0.470118291029E+04  0.454082393151E+04
  0.438659892752E+04  0.423843400529E+04  0.409623074213E+04  0.395986989689E+04  0.382921486357E+04
  0.370411485214E+04  0.358440778807E+04  0.346992293613E+04  0.336048324717E+04  0.325590744421E+04
  0.315601185104E+04  0.306061198220E+04  0.296952391774E+04  0.288256546988E+04  0.279955716425E+04
  0.272032303788E+04  0.264469131780E+04  0.257249493049E+04  0.250357190652E+04  0.243776568388E+04
  0.237492531936E+04  0.231490560887E+04  0.225756715213E+04  0.220277637677E+04  0.215040546410E+04
  0.210033230961E+04  0.205244037518E+04  0.200661857628E+04  0.196276112869E+04  0.192076731447E+04
  0.188054145806E+04  0.184199252659E+04  0.180503406985E+04  0.176958404353E+04  0.173556450842E+04
  0.170290151702E+04  0.167152490071E+04  0.164136809056E+04  0.161236791243E+04  0.158446443869E+04
  0.155760080677E+04  0.153172305785E+04  0.150677998237E+04  0.148272296761E+04  0.145950585739E+04
  0.143708481840E+04  0.141541821006E+04  0.139446645616E+04  0.137419193448E+04  0.135455887746E+04
  0.133553323955E+04  0.131708262999E+04  0.129917619714E+04  0.128178455483E+04  0.126487969406E+04
  0.124843490143E+04  0.123242469430E+04  0.121682474494E+04  0.120161181708E+04  0.118676370578E+04
  0.117225917799E+04  0.115807792022E+04  0.114420048595E+04  0.113060824906E+04  0.111728335816E+04
  0.110420869474E+04  0.109136783376E+04  0.107874500693E+04  0.106632506662E+04  0.105409345695E+04
  0.104203617935E+04  0.103013976538E+04  0.101839125492E+04  0.100677816465E+04  0.995288470177E+03
  0.983910584911E+03  0.972633337542E+03  0.961445957292E+03  0.950338056652E+03  0.939299615514E+03
  0.928320969601E+03  0.917392796015E+03  0.906506104621E+03  0.895652225859E+03  0.884822805657E+03
  0.874009795207E+03  0.863205447262E+03  0.852402310381E+03  0.841593225180E+03  0.830771323496E+03
  0.819930024583E+03  0.809063038773E+03  0.798164365367E+03  0.787228297144E+03  0.776249423815E+03
  0.765222636582E+03  0.754143135311E+03  0.743006436042E+03  0.731808380721E+03  0.720545147662E+03
  0.709213264918E+03  0.697809624111E+03  0.686331497171E+03  0.674776554699E+03  0.663142886371E+03
  0.651429024277E+03  0.639633968138E+03  0.627757213942E+03  0.615798784849E+03  0.603759265888E+03
  0.591639841317E+03  0.579442335741E+03  0.567169258622E+03  0.554823851858E+03  0.542410141005E+03
  0.529932988490E+03  0.517398149385E+03  0.504812327408E+03  0.492183230313E+03  0.479519621724E+03
  0.466831366774E+03  0.454129467062E+03  0.441426080113E+03  0.428734516869E+03  0.416069210188E+03
  0.403445646052E+03  0.390880249371E+03  0.378390216905E+03  0.365993292089E+03  0.353707481920E+03
  0.341550723794E+03  0.329540523713E+03  0.317693605218E+03  0.306025632839E+03  0.294551102687E+03
  0.283283522459E+03  0.272236025630E+03  0.261422564947E+03  0.250859788487E+03  0.240569590689E+03
  0.230582132915E+03  0.220938842584E+03  0.211694577264E+03  0.202917909913E+03  0.194688447919E+03
  0.187090614512E+03  0.180204057292E+03  0.174092062055E+03  0.168790218290E+03  0.164297863336E+03
  0.160574242028E+03  0.157540138421E+03  0.155084523575E+03  0.153074936452E+03  0.151369871757E+03
  0.149831164341E+03  0.148334276863E+03  0.146774855955E+03  0.145071043429E+03  0.143162323279E+03
  0.141006430754E+03  0.138575770756E+03  0.135854206233E+03  0.132834482602E+03  0.129516221194E+03
  0.125904340978E+03  0.122007811108E+03  0.117838693901E+03  0.113411461015E+03  0.108742563144E+03
  0.103850220728E+03  0.987543900491E+02  0.934768540023E+02  0.880413819317E+02  0.824739001693E+02
  0.768026095966E+02  0.710579810541E+02  0.652725585133E+02  0.594805161180E+02  0.537169623042E+02
  0.480170867714E+02  0.424154164337E+02  0.369456741973E+02  0.316419455320E+02  0.265418631212E+02
  0.216920210131E+02  0.171545358369E+02  0.130116806220E+02  0.936375783010E+01  0.631553630375E+01
  0.394996382367E+01  0.229401956998E+01  0.128962451631E+01  0.788490545322E+00  0.586054429966E+00
  0.483859439806E+00  0.341932501738E+00  0.900617470694E-01 -0.295557602723E+00 -0.822330069192E+00
 -0.149912025199E+01 -0.234014838067E+01 -0.336127682769E+01 -0.457499515448E+01 -0.598738379831E+01
 -0.759759094866E+01 -0.939895137350E+01 -0.113806687207E+02 -0.135293345397E+02 -0.158299897388E+02
 -0.182667047160E+02 -0.208227725964E+02 -0.234806258250E+02 -0.262215685040E+02 -0.290254035973E+02
 -0.318700341254E+02 -0.347311525559E+02 -0.375821878069E+02 -0.403947474549E+02 -0.431398222226E+02
 -0.457899551105E+02 -0.483222391929E+02 -0.507214156053E+02 -0.529811921327E+02 -0.551007367948E+02
 -0.570730962171E+02 -0.588656973162E+02 -0.604030947177E+02 -0.615740687332E+02 -0.622813728004E+02
 -0.625160341825E+02 -0.623927602446E+02 -0.620971426719E+02 -0.617860720608E+02 -0.615345141163E+02
 -0.613525070342E+02 -0.612252956714E+02 -0.611382906239E+02 -0.610835522583E+02 -0.610575440926E+02
 -0.610574930214E+02 -0.610791511038E+02 -0.611162072748E+02 -0.611607010777E+02 -0.612037753590E+02
 -0.612363907595E+02 -0.612498221087E+02 -0.612359782681E+02 -0.611875346720E+02 -0.610980071488E+02
 -0.609617567776E+02 -0.607739826615E+02 -0.605307205911E+02 -0.602288443310E+02 -0.598660786198E+02
 -0.594410128789E+02 -0.589531135485E+02 -0.584027071322E+02 -0.577909539378E+02 -0.571197811748E+02
 -0.563917957387E+02 -0.556101832386E+02 -0.547786098072E+02 -0.539011428991E+02 -0.529821984605E+02
 -0.520265085425E+02 -0.510390952361E+02 -0.500252226560E+02 -0.489903171488E+02 -0.479398439928E+02
 -0.468791636373E+02 -0.458133805259E+02 -0.447472228696E+02 -0.436849578951E+02 -0.426303375820E+02
 -0.415865902998E+02 -0.405564171735E+02 -0.395419902731E+02 -0.385449556455E+02 -0.375664171305E+02
 -0.366069340667E+02 -0.356665298138E+02 -0.347447370899E+02 -0.338406882962E+02 -0.329532518030E+02
 -0.320812010936E+02 -0.312233985911E+02 -0.303789499071E+02 -0.295473356844E+02 -0.287284769955E+02
 -0.279227503944E+02 -0.271309511347E+02 -0.263542148056E+02 -0.255939077243E+02 -0.248514962550E+02
 -0.241284056096E+02 -0.234258801575E+02 -0.227448594302E+02 -0.220858849307E+02 -0.214490507002E+02
 -0.208340044675E+02 -0.202399972871E+02 -0.196659706251E+02
 core charge-density
  0.604940767032E-02  0.642761548971E-02  0.682940627762E-02  0.725624448855E-02  0.770968493046E-02
  0.819137828289E-02  0.870307694666E-02  0.924664124462E-02  0.982404599388E-02  0.104373874711E-01
  0.110888907937E-01  0.117809177412E-01  0.125159750416E-01  0.132967231504E-01  0.141259855497E-01
  0.150067585970E-01  0.159422219564E-01  0.169357496431E-01  0.179909217178E-01  0.191115366660E-01
  0.203016245020E-01  0.215654606365E-01  0.229075805517E-01  0.243327953270E-01  0.258462080638E-01
  0.274532312564E-01  0.291596051625E-01  0.309714172261E-01  0.328951226093E-01  0.349375658929E-01
  0.371060040074E-01  0.394081304589E-01  0.418521009179E-01  0.444465602416E-01  0.472006710033E-01
  0.501241436060E-01  0.532272680597E-01  0.565209475065E-01  0.600167335791E-01  0.637268636833E-01
  0.676643002968E-01  0.718427723822E-01  0.762768190127E-01  0.809818353136E-01  0.859741208276E-01
  0.912709304108E-01  0.968905277740E-01  0.102852241784E+00  0.109176525642E+00  0.115885019063E+00
  0.123000613569E+00  0.130547521042E+00  0.138551345632E+00  0.147039159179E+00  0.156039580250E+00
  0.165582856942E+00  0.175700953556E+00  0.186427641285E+00  0.197798593030E+00  0.209851482470E+00
  0.222626087487E+00  0.236164398085E+00  0.250510728870E+00  0.265711836211E+00  0.281817040160E+00
  0.298878351197E+00  0.316950601864E+00  0.336091583324E+00  0.356362186871E+00  0.377826550396E+00
  0.400552209765E+00  0.424610255083E+00  0.450075491740E+00  0.477026606117E+00  0.505546335809E+00
  0.535721644138E+00  0.567643898716E+00  0.601409053731E+00  0.637117835604E+00  0.674875931554E+00
  0.714794180572E+00  0.756988766197E+00  0.801581410415E+00  0.848699567898E+00  0.898476619671E+00
  0.951052065235E+00  0.100657171198E+01  0.106518786065E+01  0.112705948538E+01  0.119235240685E+01
  0.126123945668E+01  0.133390063121E+01  0.141052323254E+01  0.149130199450E+01  0.157643919095E+01
  0.166614472373E+01  0.176063618712E+01  0.186013890562E+01  0.196488594138E+01  0.207511806760E+01
  0.219108370355E+01  0.231303880698E+01  0.244124671904E+01  0.257597795666E+01  0.271750994700E+01
  0.286612669834E+01  0.302211840114E+01  0.318578095315E+01  0.335741540178E+01  0.353732729672E+01
  0.372582594566E+01  0.392322356552E+01  0.412983432154E+01  0.434597324633E+01  0.457195503082E+01
  0.480809267907E+01  0.505469601888E+01  0.531207006024E+01  0.558051319381E+01  0.586031522196E+01
  0.615175521548E+01  0.645509918930E+01  0.677059759176E+01  0.709848260262E+01  0.743896523617E+01
  0.779223224733E+01  0.815844284011E+01  0.853772517979E+01  0.893017271230E+01  0.933584029689E+01
  0.975474016097E+01  0.101868376892E+02  0.106320470626E+02  0.110902267672E+02  0.115611749966E+02
  0.120446249770E+02  0.125402402489E+02  0.130476099450E+02  0.135662441107E+02  0.140955691178E+02
  0.146349232319E+02  0.151835523978E+02  0.157406063169E+02  0.163051348958E+02  0.168760851552E+02
  0.174522986924E+02  0.180325098009E+02  0.186153443547E+02  0.191993195730E+02  0.197828447849E+02
  0.203642233194E+02  0.209416556465E+02  0.215132439012E+02  0.220769979160E+02  0.226308428898E+02
  0.231726288124E+02  0.237001417588E+02  0.242111171517E+02  0.247032550803E+02  0.251742377400E+02
  0.256217490373E+02  0.260434963734E+02  0.264372345882E+02  0.268007920085E+02  0.271320984993E+02
  0.274292153701E+02  0.276903669336E+02  0.279139734570E+02  0.280986851825E+02  0.282434170287E+02
  0.283473835174E+02  0.284101333967E+02  0.284315833672E+02  0.284120502435E+02  0.283522808249E+02
  0.282534786854E+02  0.281173270447E+02  0.279460068427E+02  0.277422091112E+02  0.275091407290E+02
  0.272505226547E+02  0.269705797659E+02  0.266740214857E+02  0.263660124685E+02  0.260521327262E+02
  0.257383267218E+02  0.254308411374E+02  0.251361512268E+02  0.248608759046E+02  0.246116819879E+02
  0.243951782989E+02  0.242178006464E+02  0.240856890352E+02  0.240045587845E+02  0.239795676012E+02
  0.240151809770E+02  0.241150386217E+02  0.242818249984E+02  0.245171472752E+02  0.248214242621E+02
  0.251937900610E+02  0.256320162238E+02  0.261324561813E+02  0.266900155473E+02  0.272981516240E+02
  0.279489050078E+02  0.286329656416E+02  0.293397749738E+02  0.300576650945E+02  0.307740348363E+02
  0.314755618506E+02  0.321484486068E+02  0.327786991153E+02  0.333524219815E+02  0.338561541844E+02
  0.342771987996E+02  0.346039687800E+02  0.348263279270E+02  0.349359193683E+02  0.349264712545E+02
  0.347940690385E+02  0.345373836613E+02  0.341578452725E+02  0.336597527998E+02  0.330503107825E+02
  0.323395864136E+02  0.315403816890E+02  0.306680179392E+02  0.297400327631E+02  0.287757924480E+02
  0.277960262338E+02  0.268222921621E+02  0.258763875581E+02  0.249797202749E+02  0.241526594552E+02
  0.234138865710E+02  0.227797687143E+02  0.222637764861E+02  0.218759684289E+02  0.216225629868E+02
  0.215056176319E+02  0.215228330861E+02  0.216674991916E+02  0.219285947821E+02  0.222910493066E+02
  0.227361628624E+02  0.232421693204E+02  0.237849180213E+02  0.243386467467E+02  0.248768193868E+02
  0.253730013482E+02  0.258017431078E+02  0.261394392053E+02  0.263651283963E+02  0.264612017160E+02
  0.264139888354E+02  0.262141987953E+02  0.258571981628E+02  0.253431172259E+02  0.246767824520E+02
  0.238674807749E+02  0.229285680128E+02  0.218769396645E+02  0.207323872909E+02  0.195168675356E+02
  0.182537135419E+02  0.169668200363E+02  0.156798337249E+02  0.144153799120E+02  0.131943544533E+02
  0.120353072423E+02  0.109539395903E+02  0.996273235564E+01  0.907071579686E+01  0.828338434985E+01
  0.760275076909E+01  0.702752529720E+01  0.655339760725E+01  0.617339577597E+01  0.587830196710E+01
  0.565711779996E+01  0.549758284170E+01  0.538674070125E+01  0.531151936316E+01  0.525926988649E+01
  0.521822285580E+01  0.517784892430E+01  0.512912813107E+01  0.506473388821E+01  0.497913432214E+01
  0.486861284023E+01  0.473121205397E+01  0.456660883501E+01  0.437593195178E+01  0.416153641743E+01
  0.392674999402E+01  0.367560741300E+01  0.341258664743E+01  0.314235985201E+01  0.286956895493E+01
  0.259863338025E+01  0.233359458156E+01  0.207799944439E+01  0.183482239088E+01  0.160642401382E+01
  0.139454256972E+01  0.120031351619E+01  0.102431170512E+01  0.866610518670E+00  0.726852293727E+00
  0.604324840988E+00  0.498039432171E+00  0.406806400516E+00  0.329305338874E+00  0.264147727241E+00
  0.209930621184E+00  0.165280745039E+00  0.128888936599E+00  0.995353732147E-01  0.761063735352E-01
  0.576038185153E-01  0.431483778914E-01  0.319777755323E-01  0.234412940398E-01  0.169916252678E-01
  0.121750391999E-01  0.862068818554E-02  0.602970272343E-02  0.416458023069E-02  0.283922710715E-02
  0.190989120077E-02  0.126711841914E-02  0.828784065588E-03  0.534185672288E-03  0.339138062781E-03
  0.211980944282E-03  0.130392014928E-03  0.788917587711E-04  0.469272424101E-04  0.274290006573E-04
  0.157455007695E-04  0.887205728591E-05  0.490412971525E-05  0.265769507492E-05  0.141116046485E-05
  0.733642133588E-06  0.373184252927E-06  0.185598459076E-06  0.901789452359E-07  0.427731406445E-07
  0.197886680242E-07  0.892227058888E-08  0.391716765966E-08
 kinetic energy-density
  0.218668019867E+05  0.219130536223E+05  0.219627437298E+05  0.220159785166E+05  0.220728684498E+05
  0.221335269829E+05  0.221980727135E+05  0.222666273630E+05  0.223393174700E+05  0.224162739264E+05
  0.224976334847E+05  0.225835376713E+05  0.226741336076E+05  0.227695747087E+05  0.228700209491E+05
  0.229756387012E+05  0.230866021556E+05  0.232030926400E+05  0.233253000924E+05  0.234534224060E+05
  0.235876669865E+05  0.237282506008E+05  0.238754001631E+05  0.240293525158E+05  0.241903562866E+05
  0.243586710150E+05  0.245345684652E+05  0.247183329513E+05  0.249102620883E+05  0.251106669364E+05
  0.253198729805E+05  0.255382206925E+05  0.257660660550E+05  0.260037811453E+05  0.262517551282E+05
  0.265103947221E+05  0.267801250609E+05  0.270613905195E+05  0.273546554966E+05  0.276604053181E+05
  0.279791472517E+05  0.283114113486E+05  0.286577516815E+05  0.290187472033E+05  0.293950031647E+05
  0.297871521061E+05  0.301958552884E+05  0.306218039727E+05  0.310657208667E+05  0.315283616031E+05
  0.320105163089E+05  0.325130112424E+05  0.330367105158E+05  0.335825178904E+05  0.341513786549E+05
  0.347442816009E+05  0.353622610822E+05  0.360063991362E+05  0.366778277371E+05  0.373777311282E+05
  0.381073482266E+05  0.388679751956E+05  0.396609679776E+05  0.404877451058E+05  0.413497904657E+05
  0.422486562884E+05  0.431859660569E+05  0.441634177943E+05  0.451827871805E+05  0.462459309238E+05
  0.473547902025E+05  0.485113942325E+05  0.497178637883E+05  0.509764150838E+05  0.522893634065E+05
  0.536591271635E+05  0.550882317340E+05  0.565793135566E+05  0.581351242967E+05  0.597585345510E+05
  0.614525386444E+05  0.632202586176E+05  0.650649477484E+05  0.669899957383E+05  0.689989321791E+05
  0.710954306429E+05  0.732833128672E+05  0.755665523411E+05  0.779492782413E+05  0.804357786116E+05
  0.830305037185E+05  0.857380690911E+05  0.885632578621E+05  0.915110233613E+05  0.945864904308E+05
  0.977949569209E+05  0.101141894418E+06  0.104632947950E+06  0.108273935244E+06  0.112070845337E+06
  0.116029835665E+06  0.120157228691E+06  0.124459506899E+06  0.128943306754E+06  0.133615411334E+06
  0.138482741077E+06  0.143552343084E+06  0.148831378581E+06  0.154327108225E+06  0.160046875348E+06
  0.165998086772E+06  0.172188191214E+06  0.178624654773E+06  0.185314933731E+06  0.192266444067E+06
  0.199486527779E+06  0.206982415608E+06  0.214761186154E+06  0.222829720996E+06  0.231194655730E+06
  0.239862326938E+06  0.248838714256E+06  0.258129378264E+06  0.267739393385E+06  0.277673276145E+06
  0.287934908041E+06  0.298527453948E+06  0.309453274961E+06  0.320713836822E+06  0.332309612564E+06
  0.344239981410E+06  0.356503122248E+06  0.369095903180E+06  0.382013767063E+06  0.395250613520E+06
  0.408798678126E+06  0.422648409114E+06  0.436788343045E+06  0.451204979133E+06  0.465882655101E+06
  0.480803423575E+06  0.495946932413E+06  0.511290309056E+06  0.526808051138E+06  0.542471925028E+06
  0.558250874552E+06  0.574110941370E+06  0.590015200092E+06  0.605923710072E+06  0.621793486344E+06
  0.637578492882E+06  0.653229660312E+06  0.668694931370E+06  0.683919336577E+06  0.698845103335E+06
  0.713411800662E+06  0.727556522797E+06  0.741214113636E+06  0.754317434520E+06  0.766797677212E+06
  0.778584723390E+06  0.789607552096E+06  0.799794695157E+06  0.809074740733E+06  0.817376884043E+06
  0.824631523371E+06  0.830770898912E+06  0.835729770705E+06  0.839446131035E+06  0.841861945355E+06
  0.842923914996E+06  0.842584253162E+06  0.840801465218E+06  0.837541122428E+06  0.832776617758E+06
  0.826489890965E+06  0.818672109527E+06  0.809324291208E+06  0.798457853518E+06  0.786095075208E+06
  0.772269455034E+06  0.757025953387E+06  0.740421103420E+06  0.722522979468E+06  0.703411012320E+06
  0.683175643060E+06  0.661917809716E+06  0.639748263702E+06  0.616786716088E+06  0.593160816721E+06
  0.569004972101E+06  0.544459010906E+06  0.519666708593E+06  0.494774189646E+06  0.469928208232E+06
  0.445274373201E+06  0.420955293112E+06  0.397108717358E+06  0.373865698905E+06  0.351348824967E+06
  0.329670558250E+06  0.308931727009E+06  0.289220195954E+06  0.270609743632E+06  0.253159166373E+06
  0.236911624591E+06  0.221894243707E+06  0.208117978930E+06  0.195577749897E+06  0.184252847536E+06
  0.174107610882E+06  0.165092366178E+06  0.157144614569E+06  0.150190448172E+06  0.144146168329E+06
  0.138920074220E+06  0.134414385134E+06  0.130527256346E+06  0.127154845783E+06  0.124193387343E+06
  0.121541226420E+06  0.119100773810E+06  0.116780335746E+06  0.114495779989E+06  0.112172001372E+06
  0.109744153388E+06  0.107158617510E+06  0.104373686433E+06  0.101359943915E+06  0.981003303317E+05
  0.945898912188E+05  0.908352148500E+05  0.868535748410E+05  0.826718039959E+05  0.783249347578E+05
  0.738546492481E+05  0.693075850901E+05  0.647335441691E+05  0.601836518182E+05  0.557085144883E+05
  0.513564478758E+05  0.471718375317E+05  0.431937324020E+05  0.394547412775E+05  0.359802755776E+05
  0.327881483913E+05  0.298884843479E+05  0.272838878041E+05  0.249698354740E+05  0.229352800572E+05
  0.211634507582E+05  0.196328217458E+05  0.183182049930E+05  0.171919154978E+05  0.162249536368E+05
  0.153881498896E+05  0.146532213733E+05  0.139936971558E+05  0.133856797198E+05  0.128084218452E+05
  0.122447104117E+05  0.116810598731E+05  0.111077279481E+05  0.105185737471E+05  0.991078361453E+04
  0.928449313636E+04  0.864233426356E+04  0.798893570067E+04  0.733040231626E+04  0.667379654406E+04
  0.602664203628E+04  0.539646645224E+04  0.479040082935E+04  0.421484788354E+04  0.367523122238E+04
  0.317583465559E+04  0.271972549509E+04  0.230874954560E+04  0.194357011147E+04  0.162372729905E+04
  0.134771680520E+04  0.111311276078E+04  0.916754350808E+03  0.754976520897E+03  0.623837149724E+03
  0.519301311985E+03  0.437383916078E+03  0.374261798546E+03  0.326363898668E+03  0.290441521610E+03
  0.263618310231E+03  0.243419842087E+03  0.227783633776E+03  0.215051335893E+03  0.203945654413E+03
  0.193535247986E+03  0.183191152765E+03  0.172538303369E+03  0.161405571029E+03  0.149777124278E+03
  0.137747448579E+03  0.125481595027E+03  0.113181662320E+03  0.101059916308E+03  0.893184566385E+02
  0.781349955165E+02  0.676540954446E+02  0.579828983148E+02  0.491905859826E+02  0.413105405429E+02
  0.343443964446E+02  0.282672195991E+02  0.230331784787E+02  0.185812069239E+02  0.148402925118E+02
  0.117341483589E+02  0.918513360475E+01  0.711737300487E+01  0.545909117823E+01  0.414422145793E+01
  0.311337878105E+01  0.231430160474E+01  0.170187360255E+01  0.123783268072E+01  0.890265180601E+00
  0.632969524054E+00  0.444757431747E+00  0.308744905937E+00  0.211670475937E+00  0.143265467991E+00
  0.956908270116E-01  0.630470057144E-01  0.409575683659E-01  0.262230607098E-01  0.165390787964E-01
  0.102710202811E-01  0.627744567050E-02  0.377406631583E-02  0.223090053278E-02  0.129591854641E-02
  0.739399138942E-03  0.414145691821E-03  0.227593472052E-03  0.122644063372E-03  0.647660199837E-04
  0.334950302297E-04  0.169530615578E-04  0.839142509512E-05  0.405893075843E-05  0.191702844101E-05
  0.883333293878E-06  0.396757397999E-06  0.173557714661E-06
 mkinetic energy-density pseudized
  0.240019076225E-05  0.255882512611E-05  0.272794401546E-05  0.290824037771E-05  0.310045295883E-05
  0.330536933030E-05  0.352382911605E-05  0.375672743279E-05  0.400501855763E-05  0.426971983813E-05
  0.455191586079E-05  0.485276289505E-05  0.517349363091E-05  0.551542222986E-05  0.587994970941E-05
  0.626856968372E-05  0.668287448343E-05  0.712456168015E-05  0.759544104204E-05  0.809744194917E-05
  0.863262129892E-05  0.920317193397E-05  0.981143162716E-05  0.104598926603E-04  0.111512120362E-04
  0.118882223651E-04  0.126739434713E-04  0.135115947664E-04  0.144046084408E-04  0.153566435264E-04
  0.163716008890E-04  0.174536392123E-04  0.186071920369E-04  0.198369859268E-04  0.211480598359E-04
  0.225457857544E-04  0.240358907200E-04  0.256244802840E-04  0.273180635278E-04  0.291235797337E-04
  0.310484268172E-04  0.331004916396E-04  0.352881823234E-04  0.376204627038E-04  0.401068890567E-04
  0.427576492548E-04  0.455836045110E-04  0.485963338814E-04  0.518081817086E-04  0.552323082017E-04
  0.588827433585E-04  0.627744444520E-04  0.669233573158E-04  0.713464816805E-04  0.760619408279E-04
  0.810890558491E-04  0.864484248104E-04  0.921620071511E-04  0.982532136598E-04  0.104747002397E-03
  0.111669980957E-03  0.119050515492E-03  0.126918846934E-03  0.135307214906E-03  0.144249989820E-03
  0.153783813703E-03  0.163947750335E-03  0.174783445304E-03  0.186335296646E-03  0.198650636758E-03
  0.211779926337E-03  0.225776961131E-03  0.240699092363E-03  0.256607461716E-03  0.273567251853E-03
  0.291647953488E-03  0.310923650119E-03  0.331473321564E-03  0.353381167573E-03  0.376736952817E-03
  0.401636374683E-03  0.428181455375E-03  0.456480959927E-03  0.486650841848E-03  0.518814718213E-03
  0.553104376158E-03  0.589660312844E-03  0.628632311114E-03  0.670180053186E-03  0.714473774910E-03
  0.761694963266E-03  0.812037099949E-03  0.865706454107E-03  0.922922927461E-03  0.983920955285E-03
  0.104895046692E-02  0.111827790978E-02  0.119218734100E-02  0.127098159129E-02  0.135498350559E-02
  0.144453726588E-02  0.154000980122E-02  0.164179229114E-02  0.175030176826E-02  0.186598282686E-02
  0.198930944439E-02  0.212078692330E-02  0.226095396119E-02  0.241038485780E-02  0.256969186779E-02
  0.273952770902E-02  0.292058823656E-02  0.311361529338E-02  0.331939974944E-02  0.353878474154E-02
  0.377266912730E-02  0.402201116727E-02  0.428783245038E-02  0.457122207878E-02  0.487334112905E-02
  0.519542740830E-02  0.553880052432E-02  0.590486729082E-02  0.629512748970E-02  0.671118001390E-02
  0.715472941619E-02  0.762759289036E-02  0.813170771372E-02  0.866913918098E-02  0.924208906231E-02
  0.985290461994E-02  0.105040882202E-01  0.111983075803E-01  0.119384066919E-01  0.127274174657E-01
  0.135685721453E-01  0.144653165399E-01  0.154213241316E-01  0.164405111130E-01  0.175270524180E-01
  0.186853988103E-01  0.199202951000E-01  0.212367995617E-01  0.226403046346E-01  0.241365589877E-01
  0.257316910410E-01  0.274322340372E-01  0.292451527683E-01  0.311778720634E-01  0.332383071551E-01
  0.354348960476E-01  0.377766340179E-01  0.402731103910E-01  0.429345477374E-01  0.457718436524E-01
  0.487966152873E-01  0.520212468118E-01  0.554589400007E-01  0.591237681495E-01  0.630307335362E-01
  0.671958286625E-01  0.716361015205E-01  0.763697251494E-01  0.814160717607E-01  0.867957917314E-01
  0.925308977817E-01  0.986448546761E-01  0.105162674806E+00  0.112111020038E+00  0.119518310231E+00
  0.127414838862E+00  0.135832896209E+00  0.144806900598E+00  0.154373538217E+00  0.164571912055E+00
  0.175443700564E+00  0.187033326655E+00  0.199388137698E+00  0.212558597229E+00  0.226598489113E+00
  0.241565134957E+00  0.257519625611E+00  0.274527067660E+00  0.292656845841E+00  0.311982902403E+00
  0.332584034465E+00  0.354544210499E+00  0.377952907138E+00  0.402905467559E+00  0.429503482785E+00
  0.457855197313E+00  0.488075940548E+00  0.520288585633E+00  0.554624037305E+00  0.591221750547E+00
  0.630230281854E+00  0.671807875051E+00  0.716123083695E+00  0.763355432180E+00  0.813696117773E+00
  0.867348755926E+00  0.924530171282E+00  0.985471236916E+00  0.105041776447E+01  0.111963144789E+01
  0.119339086365E+01  0.127199253032E+01  0.135575203063E+01  0.144500519892E+01  0.154010937737E+01
  0.164144474404E+01  0.174941571607E+01  0.186445243127E+01  0.198701231136E+01  0.211758171002E+01
  0.225667764901E+01  0.240484964520E+01  0.256268163146E+01  0.273079397399E+01  0.290984558837E+01
  0.310053615619E+01  0.330360844383E+01  0.351985072409E+01  0.375009930085E+01  0.399524113607E+01
  0.425621657730E+01  0.453402218268E+01  0.482971363915E+01  0.514440876760E+01  0.547929060698E+01
  0.583561056690E+01  0.621469163582E+01  0.661793162854E+01  0.704680645354E+01  0.750287337625E+01
  0.798777425009E+01  0.850323868150E+01  0.905108708924E+01  0.963323361144E+01  0.102516888059E+02
  0.109085620809E+02  0.116060637822E+02  0.123465068542E+02  0.131323079760E+02  0.139659880635E+02
  0.148501720103E+02  0.157875875240E+02  0.167810628955E+02  0.178335235168E+02  0.189479869403E+02
  0.201275562472E+02  0.213754114650E+02  0.226947987434E+02  0.240890169664E+02  0.255614014450E+02
  0.271153042961E+02  0.287540710775E+02  0.304810132093E+02  0.322993756705E+02  0.342122994213E+02
  0.362227779629E+02  0.383336074094E+02  0.405473294161E+02  0.428661662817E+02  0.452919475283E+02
  0.478260272576E+02  0.504691915966E+02  0.532215555826E+02  0.560824488977E+02  0.590502899638E+02
  0.621224480495E+02  0.652950932300E+02  0.685630343052E+02  0.719195451039E+02  0.753561800324E+02
  0.788625802449E+02  0.824262724631E+02  0.860324632539E+02  0.896638325118E+02  0.933003309987E+02
  0.969189880864E+02  0.100493737328E+03  0.103995269173E+03  0.107390922001E+03  0.110644624712E+03
  0.113716906287E+03  0.116564989980E+03  0.119142992057E+03  0.121402247095E+03  0.123291783583E+03
  0.124758974783E+03  0.125750390095E+03  0.126212871171E+03  0.126094854257E+03  0.125347955118E+03
  0.123928824666E+03  0.121801271385E+03  0.118938629852E+03  0.115326332311E+03  0.110964611379E+03
  0.105871226017E+03  0.100084059269E+03  0.936633852047E+02  0.866935448349E+02  0.792837084031E+02
  0.715673382066E+02  0.636999073995E+02  0.558543845437E+02  0.482139724196E+02  0.409616079265E+02
  0.342658068218E+02  0.282625952930E+02  0.230335355069E+02  0.185812069239E+02  0.148402925118E+02
  0.117341483589E+02  0.918513360475E+01  0.711737300487E+01  0.545909117823E+01  0.414422145793E+01
  0.311337878105E+01  0.231430160474E+01  0.170187360255E+01  0.123783268072E+01  0.890265180601E+00
  0.632969524054E+00  0.444757431747E+00  0.308744905937E+00  0.211670475937E+00  0.143265467991E+00
  0.956908270116E-01  0.630470057144E-01  0.409575683659E-01  0.262230607098E-01  0.165390787964E-01
  0.102710202811E-01  0.627744567050E-02  0.377406631583E-02  0.223090053278E-02  0.129591854641E-02
  0.739399138942E-03  0.414145691821E-03  0.227593472052E-03  0.122644063372E-03  0.647660199837E-04
  0.334950302297E-04  0.169530615578E-04  0.839142509512E-05  0.405893075843E-05  0.191702844101E-05
  0.883333293878E-06  0.396757397999E-06  0.173557714661E-06
 local pseudopotential core
 -0.132506633676E+03 -0.132506848014E+03 -0.132507055601E+03 -0.132507256650E+03 -0.132507451365E+03
 -0.132507639946E+03 -0.132507822587E+03 -0.132507999475E+03 -0.132508170790E+03 -0.132508336707E+03
 -0.132508497398E+03 -0.132508653026E+03 -0.132508803751E+03 -0.132508949726E+03 -0.132509091101E+03
 -0.132509228022E+03 -0.132509360627E+03 -0.132509489054E+03 -0.132509613432E+03 -0.132509733890E+03
 -0.132509850551E+03 -0.132509963534E+03 -0.132510072954E+03 -0.132510178924E+03 -0.132510281552E+03
 -0.132510380943E+03 -0.132510477199E+03 -0.132510570417E+03 -0.132510660693E+03 -0.132510748120E+03
 -0.132510832787E+03 -0.132510914779E+03 -0.132510994182E+03 -0.132511071076E+03 -0.132511145539E+03
 -0.132511217647E+03 -0.132511287474E+03 -0.132511355092E+03 -0.132511420568E+03 -0.132511483970E+03
 -0.132511545362E+03 -0.132511604807E+03 -0.132511662365E+03 -0.132511718094E+03 -0.132511772051E+03
 -0.132511824291E+03 -0.132511874866E+03 -0.132511923828E+03 -0.132511971226E+03 -0.132512017108E+03
 -0.132512061520E+03 -0.132512104507E+03 -0.132512146112E+03 -0.132512186377E+03 -0.132512225341E+03
 -0.132512263044E+03 -0.132512299524E+03 -0.132512334815E+03 -0.132512368953E+03 -0.132512401973E+03
 -0.132512433905E+03 -0.132512464781E+03 -0.132512494631E+03 -0.132512523484E+03 -0.132512551367E+03
 -0.132512578308E+03 -0.132512604330E+03 -0.132512629460E+03 -0.132512653719E+03 -0.132512677130E+03
 -0.132512699715E+03 -0.132512721493E+03 -0.132512742484E+03 -0.132512762705E+03 -0.132512782174E+03
 -0.132512800906E+03 -0.132512818918E+03 -0.132512836222E+03 -0.132512852832E+03 -0.132512868760E+03
 -0.132512884017E+03 -0.132512898612E+03 -0.132512912555E+03 -0.132512925854E+03 -0.132512938514E+03
 -0.132512950543E+03 -0.132512961943E+03 -0.132512972720E+03 -0.132512982874E+03 -0.132512992406E+03
 -0.132513001317E+03 -0.132513009604E+03 -0.132513017265E+03 -0.132513024295E+03 -0.132513030688E+03
 -0.132513036437E+03 -0.132513041532E+03 -0.132513045964E+03 -0.132513049720E+03 -0.132513052785E+03
 -0.132513055145E+03 -0.132513056779E+03 -0.132513057669E+03 -0.132513057792E+03 -0.132513057124E+03
 -0.132513055636E+03 -0.132513053300E+03 -0.132513050083E+03 -0.132513045950E+03 -0.132513040862E+03
 -0.132513034778E+03 -0.132513027652E+03 -0.132513019437E+03 -0.132513010078E+03 -0.132512999521E+03
 -0.132512987703E+03 -0.132512974559E+03 -0.132512960019E+03 -0.132512944007E+03 -0.132512926442E+03
 -0.132512907236E+03 -0.132512886298E+03 -0.132512863525E+03 -0.132512838812E+03 -0.132512812044E+03
 -0.132512783099E+03 -0.132512751845E+03 -0.132512718142E+03 -0.132512681840E+03 -0.132512642780E+03
 -0.132512600791E+03 -0.132512555689E+03 -0.132512507280E+03 -0.132512455355E+03 -0.132512399692E+03
 -0.132512340054E+03 -0.132512276187E+03 -0.132512207821E+03 -0.132512134667E+03 -0.132512056417E+03
 -0.132511972742E+03 -0.132511883293E+03 -0.132511787695E+03 -0.132511685550E+03 -0.132511576431E+03
 -0.132511459885E+03 -0.132511335428E+03 -0.132511202543E+03 -0.132511060680E+03 -0.132510909253E+03
 -0.132510747633E+03 -0.132510575155E+03 -0.132510391106E+03 -0.132510194726E+03 -0.132509985207E+03
 -0.132509761684E+03 -0.132509523237E+03 -0.132509268885E+03 -0.132508997581E+03 -0.132508708210E+03
 -0.132508399582E+03 -0.132508070428E+03 -0.132507719397E+03 -0.132507345046E+03 -0.132506945839E+03
 -0.132506520136E+03 -0.132506066191E+03 -0.132505582141E+03 -0.132505065999E+03 -0.132504515649E+03
 -0.132503928833E+03 -0.132503303146E+03 -0.132502636021E+03 -0.132501924725E+03 -0.132501166340E+03
 -0.132500357759E+03 -0.132499495669E+03 -0.132498576537E+03 -0.132497596596E+03 -0.132496551833E+03
 -0.132495437967E+03 -0.132494250437E+03 -0.132492984378E+03 -0.132491634605E+03 -0.132490195593E+03
 -0.132488661448E+03 -0.132487025890E+03 -0.132485282224E+03 -0.132483423313E+03 -0.132481441548E+03
 -0.132479328820E+03 -0.132477076484E+03 -0.132474675324E+03 -0.132472115518E+03 -0.132469386596E+03
 -0.132466477396E+03 -0.132463376023E+03 -0.132460069797E+03 -0.132456545202E+03 -0.132452787832E+03
 -0.132448782332E+03 -0.132444512337E+03 -0.132439960405E+03 -0.132435107945E+03 -0.132429935143E+03
 -0.132424420883E+03 -0.132418542661E+03 -0.132412276492E+03 -0.132405596817E+03 -0.132398476399E+03
 -0.132390886211E+03 -0.132382795325E+03 -0.132374170780E+03 -0.132364977458E+03 -0.132355177939E+03
 -0.132344732355E+03 -0.132333598225E+03 -0.132321730295E+03 -0.132309080349E+03 -0.132295597027E+03
 -0.132281225615E+03 -0.132265907833E+03 -0.132249581605E+03 -0.132232180813E+03 -0.132213635045E+03
 -0.132193869313E+03 -0.132172803764E+03 -0.132150353374E+03 -0.132126427614E+03 -0.132100930107E+03
 -0.132073758254E+03 -0.132044802845E+03 -0.132013947646E+03 -0.131981068956E+03 -0.131946035142E+03
 -0.131908706149E+03 -0.131868932976E+03 -0.131826557126E+03 -0.131781410022E+03 -0.131733312392E+03
 -0.131682073619E+03 -0.131627491050E+03 -0.131569349276E+03 -0.131507419365E+03 -0.131441458058E+03
 -0.131371206915E+03 -0.131296391427E+03 -0.131216720072E+03 -0.131131883326E+03 -0.131041552623E+03
 -0.130945379262E+03 -0.130842993259E+03 -0.130734002145E+03 -0.130617989699E+03 -0.130494514630E+03
 -0.130363109182E+03 -0.130223277689E+03 -0.130074495047E+03 -0.129916205127E+03 -0.129747819109E+03
 -0.129568713742E+03 -0.129378229523E+03 -0.129175668800E+03 -0.128960293785E+03 -0.128731324485E+03
 -0.128487936542E+03 -0.128229258986E+03 -0.127954371887E+03 -0.127662303932E+03 -0.127352029896E+03
 -0.127022468041E+03 -0.126672477428E+03 -0.126300855171E+03 -0.125906333641E+03 -0.125487577649E+03
 -0.125043181641E+03 -0.124571666963E+03 -0.124071479247E+03 -0.123540986018E+03 -0.122978474627E+03
 -0.122382150667E+03 -0.121750137042E+03 -0.121080473963E+03 -0.120371120161E+03 -0.119619955726E+03
 -0.118824787088E+03 -0.117983354782E+03 -0.117093344838E+03 -0.116152404815E+03 -0.115158165796E+03
 -0.114108271892E+03 -0.113000419159E+03 -0.111832406017E+03 -0.110602197411E+03 -0.109308004752E+03
 -0.107948382923E+03 -0.106522343997E+03 -0.105029484233E+03 -0.103470115790E+03 -0.101845386537E+03
 -0.100157359465E+03 -0.984090064376E+02 -0.966040492937E+02 -0.947465572859E+02 -0.928401953855E+02
 -0.908870442249E+02 -0.888860395549E+02 -0.868313737141E+02 -0.847116221804E+02 -0.825105232325E+02
 -0.802094008894E+02 -0.777884958911E+02 -0.753240971442E+02 -0.728790761943E+02 -0.704620962845E+02
 -0.682236902787E+02 -0.660460055831E+02 -0.639241923318E+02 -0.618854394950E+02 -0.599211407497E+02
 -0.580230311071E+02 -0.561876751385E+02 -0.544123541199E+02 -0.526945989022E+02 -0.510321535746E+02
 -0.494229452836E+02 -0.478650466446E+02 -0.463566582950E+02 -0.448960871662E+02 -0.434817300336E+02
 -0.421120633763E+02 -0.407856312933E+02 -0.395010388155E+02 -0.382569456433E+02 -0.370520609536E+02
 -0.358851396515E+02 -0.347549799059E+02 -0.336604194952E+02 -0.326003345404E+02 -0.315736375787E+02
 -0.305792760321E+02 -0.296162308864E+02 -0.286835154783E+02 -0.277801744038E+02 -0.269052824573E+02
 -0.260579436387E+02 -0.252372902240E+02 -0.244424818397E+02 -0.236727045803E+02 -0.229271701897E+02
 -0.222051152221E+02 -0.215058002653E+02 -0.208285091807E+02
 pspotential valence only
 -0.733954051569E+02 -0.733956195025E+02 -0.733958270969E+02 -0.733960281535E+02 -0.733962228769E+02
 -0.733964114677E+02 -0.733965941181E+02 -0.733967710160E+02 -0.733969423419E+02 -0.733971082713E+02
 -0.733972689746E+02 -0.733974246158E+02 -0.733975753546E+02 -0.733977213450E+02 -0.733978627367E+02
 -0.733979996743E+02 -0.733981322983E+02 -0.733982607442E+02 -0.733983851435E+02 -0.733985056239E+02
 -0.733986223084E+02 -0.733987353165E+02 -0.733988447639E+02 -0.733989507626E+02 -0.733990534213E+02
 -0.733991528447E+02 -0.733992491349E+02 -0.733993423902E+02 -0.733994327062E+02 -0.733995201752E+02
 -0.733996048868E+02 -0.733996869273E+02 -0.733997663810E+02 -0.733998433292E+02 -0.733999178502E+02
 -0.733999900205E+02 -0.734000599139E+02 -0.734001276016E+02 -0.734001931530E+02 -0.734002566351E+02
 -0.734003181125E+02 -0.734003776481E+02 -0.734004353026E+02 -0.734004911351E+02 -0.734005452023E+02
 -0.734005975595E+02 -0.734006482599E+02 -0.734006973554E+02 -0.734007448959E+02 -0.734007909296E+02
 -0.734008355035E+02 -0.734008786630E+02 -0.734009204517E+02 -0.734009609122E+02 -0.734010000856E+02
 -0.734010380113E+02 -0.734010747279E+02 -0.734011102724E+02 -0.734011446807E+02 -0.734011779874E+02
 -0.734012102261E+02 -0.734012414293E+02 -0.734012716280E+02 -0.734013008526E+02 -0.734013291321E+02
 -0.734013564948E+02 -0.734013829677E+02 -0.734014085770E+02 -0.734014333480E+02 -0.734014573049E+02
 -0.734014804712E+02 -0.734015028693E+02 -0.734015245210E+02 -0.734015454469E+02 -0.734015656670E+02
 -0.734015852006E+02 -0.734016040658E+02 -0.734016222803E+02 -0.734016398609E+02 -0.734016568234E+02
 -0.734016731831E+02 -0.734016889544E+02 -0.734017041511E+02 -0.734017187860E+02 -0.734017328715E+02
 -0.734017464189E+02 -0.734017594389E+02 -0.734017719415E+02 -0.734017839359E+02 -0.734017954305E+02
 -0.734018064330E+02 -0.734018169503E+02 -0.734018269885E+02 -0.734018365529E+02 -0.734018456481E+02
 -0.734018542777E+02 -0.734018624445E+02 -0.734018701505E+02 -0.734018773967E+02 -0.734018841832E+02
 -0.734018905094E+02 -0.734018963732E+02 -0.734019017720E+02 -0.734019067018E+02 -0.734019111576E+02
 -0.734019151333E+02 -0.734019186216E+02 -0.734019216139E+02 -0.734019241002E+02 -0.734019260693E+02
 -0.734019275086E+02 -0.734019284036E+02 -0.734019287387E+02 -0.734019284962E+02 -0.734019276570E+02
 -0.734019261999E+02 -0.734019241017E+02 -0.734019213372E+02 -0.734019178790E+02 -0.734019136974E+02
 -0.734019087601E+02 -0.734019030322E+02 -0.734018964762E+02 -0.734018890515E+02 -0.734018807144E+02
 -0.734018714178E+02 -0.734018611112E+02 -0.734018497404E+02 -0.734018372470E+02 -0.734018235685E+02
 -0.734018086379E+02 -0.734017923835E+02 -0.734017747283E+02 -0.734017555902E+02 -0.734017348809E+02
 -0.734017125064E+02 -0.734016883659E+02 -0.734016623517E+02 -0.734016343489E+02 -0.734016042343E+02
 -0.734015718768E+02 -0.734015371361E+02 -0.734014998622E+02 -0.734014598954E+02 -0.734014170649E+02
 -0.734013711883E+02 -0.734013220713E+02 -0.734012695062E+02 -0.734012132716E+02 -0.734011531310E+02
 -0.734010888324E+02 -0.734010201068E+02 -0.734009466672E+02 -0.734008682075E+02 -0.734007844013E+02
 -0.734006949003E+02 -0.734005993331E+02 -0.734004973038E+02 -0.734003883899E+02 -0.734002721410E+02
 -0.734001480768E+02 -0.734000156851E+02 -0.733998744197E+02 -0.733997236984E+02 -0.733995629000E+02
 -0.733993913628E+02 -0.733992083806E+02 -0.733990132008E+02 -0.733988050212E+02 -0.733985829860E+02
 -0.733983461832E+02 -0.733980936404E+02 -0.733978243209E+02 -0.733975371193E+02 -0.733972308574E+02
 -0.733969042791E+02 -0.733965560452E+02 -0.733961847281E+02 -0.733957888061E+02 -0.733953666566E+02
 -0.733949165505E+02 -0.733944366440E+02 -0.733939249721E+02 -0.733933794398E+02 -0.733927978141E+02
 -0.733921777148E+02 -0.733915166046E+02 -0.733908117791E+02 -0.733900603556E+02 -0.733892592616E+02
 -0.733884052219E+02 -0.733874947460E+02 -0.733865241133E+02 -0.733854893587E+02 -0.733843862558E+02
 -0.733832103006E+02 -0.733819566927E+02 -0.733806203164E+02 -0.733791957197E+02 -0.733776770928E+02
 -0.733760582442E+02 -0.733743325766E+02 -0.733724930596E+02 -0.733705322022E+02 -0.733684420228E+02
 -0.733662140171E+02 -0.733638391243E+02 -0.733613076912E+02 -0.733586094340E+02 -0.733557333973E+02
 -0.733526679112E+02 -0.733494005449E+02 -0.733459180583E+02 -0.733422063499E+02 -0.733382504016E+02
 -0.733340342204E+02 -0.733295407762E+02 -0.733247519362E+02 -0.733196483945E+02 -0.733142095984E+02
 -0.733084136699E+02 -0.733022373220E+02 -0.732956557710E+02 -0.732886426429E+02 -0.732811698746E+02
 -0.732732076095E+02 -0.732647240867E+02 -0.732556855243E+02 -0.732460559961E+02 -0.732357973009E+02
 -0.732248688257E+02 -0.732132274000E+02 -0.732008271437E+02 -0.731876193059E+02 -0.731735520958E+02
 -0.731585705046E+02 -0.731426161190E+02 -0.731256269245E+02 -0.731075370997E+02 -0.730882768010E+02
 -0.730677719364E+02 -0.730459439294E+02 -0.730227094726E+02 -0.729979802696E+02 -0.729716627666E+02
 -0.729436578724E+02 -0.729138606670E+02 -0.728821600985E+02 -0.728484386682E+02 -0.728125721036E+02
 -0.727744290189E+02 -0.727338705632E+02 -0.726907500557E+02 -0.726449126073E+02 -0.725961947290E+02
 -0.725444239247E+02 -0.724894182698E+02 -0.724309859729E+02 -0.723689249198E+02 -0.723030221986E+02
 -0.722330536034E+02 -0.721587831147E+02 -0.720799623544E+02 -0.719963300104E+02 -0.719076112299E+02
 -0.718135169757E+02 -0.717137433419E+02 -0.716079708253E+02 -0.714958635480E+02 -0.713770684271E+02
 -0.712512142906E+02 -0.711179109366E+02 -0.709767481393E+02 -0.708272946056E+02 -0.706690968952E+02
 -0.705016783200E+02 -0.703245378531E+02 -0.701371490870E+02 -0.699389593000E+02 -0.697293887104E+02
 -0.695078300293E+02 -0.692736484572E+02 -0.690261823198E+02 -0.687647445983E+02 -0.684886256926E+02
 -0.681970978521E+02 -0.678894218457E+02 -0.675648566012E+02 -0.672226727493E+02 -0.668621712469E+02
 -0.664827085261E+02 -0.660837298947E+02 -0.656648131453E+02 -0.652257244239E+02 -0.647664882014E+02
 -0.642874724326E+02 -0.637894883153E+02 -0.632739009817E+02 -0.627427422913E+02 -0.621988088499E+02
 -0.616457164558E+02 -0.610878654420E+02 -0.605302496081E+02 -0.599780174601E+02 -0.594356799909E+02
 -0.589058855258E+02 -0.583878092865E+02 -0.578755000025E+02 -0.573569465462E+02 -0.568147926169E+02
 -0.562286897717E+02 -0.555765538490E+02 -0.548291340039E+02 -0.539539615974E+02 -0.529712960400E+02
 -0.520427193022E+02 -0.510609591258E+02 -0.500313185132E+02 -0.489907234485E+02 -0.479398439928E+02
 -0.468791636373E+02 -0.458133805260E+02 -0.447472228696E+02 -0.436849578951E+02 -0.426303375820E+02
 -0.415865902999E+02 -0.405564171735E+02 -0.395419902731E+02 -0.385449556455E+02 -0.375664171305E+02
 -0.366069340667E+02 -0.356665298138E+02 -0.347447370900E+02 -0.338406882962E+02 -0.329532518030E+02
 -0.320812010936E+02 -0.312233985911E+02 -0.303789499071E+02 -0.295473356844E+02 -0.287284769955E+02
 -0.279227503944E+02 -0.271309511347E+02 -0.263542148056E+02 -0.255939077243E+02 -0.248514962550E+02
 -0.241284056097E+02 -0.234258801575E+02 -0.227448594302E+02 -0.220858849307E+02 -0.214490507002E+02
 -0.208340044675E+02 -0.202399972871E+02 -0.196659706251E+02
 core charge-density (pseudized)
  0.415928192574E-07  0.443417884344E-07  0.472724435759E-07  0.503967927426E-07  0.537276376370E-07
  0.572786260565E-07  0.610643078144E-07  0.651001943556E-07  0.694028223139E-07  0.739898212686E-07
  0.788799859801E-07  0.840933533996E-07  0.896512847681E-07  0.955765531423E-07  0.101893436705E-06
  0.108627818241E-06  0.115807291191E-06  0.123461272713E-06  0.131621124213E-06  0.140320279850E-06
  0.149594383524E-06  0.159481434927E-06  0.170021945240E-06  0.181259103126E-06  0.193238951688E-06
  0.206010577130E-06  0.219626309877E-06  0.234141938999E-06  0.249616940796E-06  0.266114722501E-06
  0.283702882080E-06  0.302453485209E-06  0.322443360557E-06  0.343754414580E-06  0.366473967128E-06
  0.390695109226E-06  0.416517084504E-06  0.444045695841E-06  0.473393738875E-06  0.504681464178E-06
  0.538037069961E-06  0.573597227361E-06  0.611507640431E-06  0.651923643145E-06  0.695010835867E-06
  0.740945763875E-06  0.789916640738E-06  0.842124119501E-06  0.897782114833E-06  0.957118679524E-06
  0.102037693890E-05  0.108781608701E-05  0.115971244863E-05  0.123636061148E-05  0.131807463325E-05
  0.140518932845E-05  0.149806164022E-05  0.159707210289E-05  0.170262640118E-05  0.181515703243E-05
  0.193512507868E-05  0.206302209595E-05  0.219937212827E-05  0.234473385492E-05  0.249970287953E-05
  0.266491417048E-05  0.284104466258E-05  0.302881603076E-05  0.322899764699E-05  0.344240973268E-05
  0.366992671942E-05  0.391248083182E-05  0.417106590715E-05  0.444674146747E-05  0.474063706078E-05
  0.505395688921E-05  0.538798474302E-05  0.574408926067E-05  0.612372953660E-05  0.652846109961E-05
  0.695994228629E-05  0.741994103576E-05  0.791034213344E-05  0.843315493353E-05  0.899052159194E-05
  0.958472584324E-05  0.102182023578E-04  0.108935467171E-04  0.116135260486E-04  0.123810903635E-04
  0.131993846430E-04  0.140717617248E-04  0.150017960394E-04  0.159932982562E-04  0.170503308957E-04
  0.181772249747E-04  0.193785977509E-04  0.206593716408E-04  0.220247943866E-04  0.234804605577E-04
  0.250323344709E-04  0.266867746277E-04  0.284505597643E-04  0.303309166244E-04  0.323355495673E-04
  0.344726721317E-04  0.367510406863E-04  0.391799903035E-04  0.417694730039E-04  0.445300985277E-04
  0.474731778005E-04  0.506107692713E-04  0.539557283123E-04  0.575217598825E-04  0.613234746716E-04
  0.653764489533E-04  0.696972883934E-04  0.743036960732E-04  0.792145450084E-04  0.844499554580E-04
  0.900313773415E-04  0.959816781009E-04  0.102325236367E-03  0.109088041813E-03  0.116297801606E-03
  0.123984053890E-03  0.132178288761E-03  0.140914077240E-03  0.150227208759E-03  0.160155837731E-03
  0.170740639795E-03  0.182024978389E-03  0.194055082312E-03  0.206880235020E-03  0.220552976416E-03
  0.235129317965E-03  0.250668972012E-03  0.267235596241E-03  0.284897054263E-03  0.303725693414E-03
  0.323798640886E-03  0.345198119394E-03  0.368011783685E-03  0.392333079239E-03  0.418261624644E-03
  0.445903619193E-03  0.475372277357E-03  0.506788291928E-03  0.540280327684E-03  0.575985547615E-03
  0.614050173826E-03  0.654630085422E-03  0.697891455775E-03  0.744011431787E-03  0.793178857892E-03
  0.845595047735E-03  0.901474606657E-03  0.961046308321E-03  0.102455402902E-02  0.109225774342E-02
  0.116443458589E-02  0.124137998141E-02  0.132340885105E-02  0.141085689640E-02  0.150408196851E-02
  0.160346552666E-02  0.170941419273E-02  0.182236140764E-02  0.194276919628E-02  0.207113004806E-02
  0.220796892061E-02  0.235384537451E-02  0.250935584763E-02  0.267513607807E-02  0.285186368526E-02
  0.304026091941E-02  0.324109759012E-02  0.345519418578E-02  0.368342519571E-02  0.392672264826E-02
  0.418607987851E-02  0.446255554011E-02  0.475727787694E-02  0.507144927078E-02  0.540635108256E-02
  0.576334880560E-02  0.614389755026E-02  0.654954788081E-02  0.698195202638E-02  0.744287048895E-02
  0.793417907305E-02  0.845787636276E-02  0.901609167338E-02  0.961109350643E-02  0.102452985382E-01
  0.109212811738E-01  0.116417836999E-01  0.124097270718E-01  0.132282223710E-01  0.141005829730E-01
  0.150303374645E-01  0.160212433531E-01  0.170773016131E-01  0.182027721136E-01  0.194021899759E-01
  0.206803829101E-01  0.220424895808E-01  0.234939790561E-01  0.250406713907E-01  0.266887594011E-01
  0.284448316870E-01  0.303158969548E-01  0.323094097018E-01  0.344332973159E-01  0.366959886467E-01
  0.391064441043E-01  0.416741873350E-01  0.444093385264E-01  0.473226493847E-01  0.504255398266E-01
  0.537301364167E-01  0.572493125783E-01  0.609967305903E-01  0.649868853746E-01  0.692351500607E-01
  0.737578232977E-01  0.785721782637E-01  0.836965132950E-01  0.891502040315E-01  0.949537569390E-01
  0.101128864028E+00  0.107698458550E+00  0.114686771380E+00  0.122119387769E+00  0.130023304033E+00
  0.138426983706E+00  0.147360412565E+00  0.156855151857E+00  0.166944388898E+00  0.177662984131E+00
  0.189047513537E+00  0.201136305136E+00  0.213969468133E+00  0.227588913023E+00  0.242038360752E+00
  0.257363338746E+00  0.273611161327E+00  0.290830891697E+00  0.309073282322E+00  0.328390690115E+00
  0.348836962410E+00  0.370467289223E+00  0.393338016780E+00  0.417506416732E+00  0.443030404895E+00
  0.469968202707E+00  0.498377933947E+00  0.528317148580E+00  0.559842264883E+00  0.593007920344E+00
  0.627866221113E+00  0.664465879207E+00  0.702851226065E+00  0.743061090654E+00  0.785127530000E+00
  0.829074400014E+00  0.874915754636E+00  0.922654062002E+00  0.972278227345E+00  0.102376141409E+01
  0.107705865693E+01  0.113210426415E+01  0.118880901063E+01  0.124705712903E+01  0.130670311346E+01
  0.136756835957E+01  0.142943767555E+01  0.149205571254E+01  0.155512337878E+01  0.161829432110E+01
  0.168117157980E+01  0.174330454815E+01  0.180418639744E+01  0.186325216044E+01  0.191987770186E+01
  0.197337984205E+01  0.202301793948E+01  0.206799727650E+01  0.210747462911E+01  0.214056643249E+01
  0.216635997502E+01  0.218392805893E+01  0.219234754986E+01  0.219072219026E+01  0.217820996404E+01
  0.215405515935E+01  0.211762506946E+01  0.206845098324E+01  0.200627273209E+01  0.193108556292E+01
  0.184318748622E+01  0.174322449558E+01  0.163223017203E+01  0.151165518810E+01  0.138338114607E+01
  0.124971208444E+01  0.111333596331E+01  0.977247634508E+00  0.844624415495E+00  0.718645675338E+00
  0.602249136876E+00  0.497819292373E+00  0.406807864889E+00  0.329305338874E+00  0.264147727241E+00
  0.209930621184E+00  0.165280745039E+00  0.128888936599E+00  0.995353732147E-01  0.761063735352E-01
  0.576038185153E-01  0.431483778914E-01  0.319777755323E-01  0.234412940398E-01  0.169916252678E-01
  0.121750391999E-01  0.862068818554E-02  0.602970272343E-02  0.416458023069E-02  0.283922710715E-02
  0.190989120077E-02  0.126711841914E-02  0.828784065588E-03  0.534185672288E-03  0.339138062781E-03
  0.211980944282E-03  0.130392014928E-03  0.788917587711E-04  0.469272424101E-04  0.274290006573E-04
  0.157455007695E-04  0.887205728591E-05  0.490412971525E-05  0.265769507492E-05  0.141116046485E-05
  0.733642133588E-06  0.373184252927E-06  0.185598459076E-06  0.901789452359E-07  0.427731406445E-07
  0.197886680242E-07  0.892227058888E-08  0.391716765966E-08
 pseudo wavefunction
  0.728856774333E-12  0.802295700447E-12  0.883134263972E-12  0.972118045441E-12  0.107006774938E-11
  0.117788677374E-11  0.129656954198E-11  0.142721067477E-11  0.157101508571E-11  0.172930909435E-11
  0.190355265898E-11  0.209535284191E-11  0.230647863152E-11  0.253887725782E-11  0.279469215188E-11
  0.307628271487E-11  0.338624607900E-11  0.372744106109E-11  0.410301452964E-11  0.451643042868E-11
  0.497150172595E-11  0.547242558027E-11  0.602382205221E-11  0.663077671527E-11  0.729888756059E-11
  0.803431662757E-11  0.884384683693E-11  0.973494455005E-11  0.107158284318E-10  0.117955452522E-10
  0.129840533248E-10  0.142923143537E-10  0.157323945341E-10  0.173175758393E-10  0.190624785216E-10
  0.209831959563E-10  0.230974430718E-10  0.254247197357E-10  0.279864906040E-10  0.308063830908E-10
  0.339104052858E-10  0.373271858292E-10  0.410882379554E-10  0.452282501425E-10  0.497854060459E-10
  0.548017366697E-10  0.603235080216E-10  0.664016478275E-10  0.730922152417E-10  0.804569178849E-10
  0.885636809777E-10  0.974872738197E-10  0.107309999393E-09  0.118122453446E-09  0.130024360068E-09
  0.143125491449E-09  0.157546680316E-09  0.173420934383E-09  0.190894663088E-09  0.210129027939E-09
  0.231301428916E-09  0.254607140644E-09  0.280261113421E-09  0.308499955718E-09  0.339584116438E-09
  0.373800287046E-09  0.411464045743E-09  0.452922768065E-09  0.498558830743E-09  0.548793138387E-09
  0.604089005509E-09  0.664956429699E-09  0.731956795355E-09  0.805708051359E-09  0.886890410449E-09
  0.976252622845E-09  0.107461888201E-08  0.118289642620E-08  0.130208390597E-08  0.143328059477E-08
  0.157769652755E-08  0.173666366093E-08  0.191164815791E-08  0.210426391030E-08  0.231628742361E-08
  0.254967420188E-08  0.280657678320E-08  0.308936459263E-08  0.340064579535E-08  0.374329135177E-08
  0.412046149633E-08  0.453563488425E-08  0.499264067506E-08  0.549569384880E-08  0.604943408060E-08
  0.665896853206E-08  0.732991895439E-08  0.806847353729E-08  0.888144398217E-08  0.977632832582E-08
  0.107613800939E-07  0.118456844225E-07  0.130392418487E-07  0.143530605444E-07  0.157992578428E-07
  0.173911719945E-07  0.191434851834E-07  0.210723589375E-07  0.231955831828E-07  0.255327403156E-07
  0.281053858049E-07  0.309372469929E-07  0.340544419238E-07  0.374857202221E-07  0.412627282389E-07
  0.454203009135E-07  0.499967830407E-07  0.550343829067E-07  0.605795615542E-07  0.666834612671E-07
  0.734023772256E-07  0.807982766805E-07  0.889393704347E-07  0.979007419013E-07  0.107765039539E-06
  0.118623239047E-06  0.130575482356E-06  0.143732001131E-06  0.158214133333E-06  0.174155442176E-06
  0.191702947824E-06  0.211018483168E-06  0.232280186190E-06  0.255684142667E-06  0.281446194364E-06
  0.309803929378E-06  0.341018872988E-06  0.375378899200E-06  0.413200885219E-06  0.454833633312E-06
  0.500661086996E-06  0.551105871186E-06  0.606633188936E-06  0.667755110678E-06  0.735035295487E-06
  0.809094187873E-06  0.890614737984E-06  0.980348697919E-06  0.107912355216E-05  0.118785014596E-05
  0.130753108196E-05  0.143926996237E-05  0.158428156179E-05  0.174390302445E-05  0.191960618882E-05
  0.211301115322E-05  0.232590120717E-05  0.256023926598E-05  0.281818595985E-05  0.310211954385E-05
  0.341465781205E-05  0.375868221732E-05  0.413736441865E-05  0.455419550016E-05  0.501301813032E-05
  0.551806195709E-05  0.607398256417E-05  0.668590434635E-05  0.735946769766E-05  0.810088094577E-05
  0.891697750925E-05  0.981527880237E-05  0.108040634643E-04  0.118924435482E-04  0.130904483672E-04
  0.144091167680E-04  0.158605986746E-04  0.174582668341E-04  0.192168397851E-04  0.211525171760E-04
  0.232831286669E-04  0.256282977785E-04  0.282096221819E-04  0.310508720750E-04  0.341782084544E-04
  0.376204232701E-04  0.414092036506E-04  0.455794226003E-04  0.501694588108E-04  0.552215484890E-04
  0.607821723927E-04  0.669024815780E-04  0.736387657105E-04  0.810529681708E-04  0.892132526019E-04
  0.981946260008E-04  0.108079623960E-03  0.118959064209E-03  0.130932875213E-03  0.144111007236E-03
  0.158614434003E-03  0.174576253887E-03  0.192142900391E-03  0.211475472678E-03  0.232751197876E-03
  0.256165038084E-03  0.281931456157E-03  0.310286355769E-03  0.341489212651E-03  0.375825415545E-03
  0.413608837134E-03  0.455184657090E-03  0.500932461476E-03  0.551269644924E-03  0.606655144472E-03
  0.667593536568E-03  0.734639531571E-03  0.808402903173E-03  0.889553893495E-03  0.978829138163E-03
  0.107703815953E-02  0.118507048034E-02  0.130390341461E-02  0.143461059709E-02  0.157837131785E-02
  0.173648073391E-02  0.191036103526E-02  0.210157364889E-02  0.231183257060E-02  0.254301892073E-02
  0.279719682705E-02  0.307663074479E-02  0.338380433097E-02  0.372144099749E-02  0.409252627435E-02
  0.450033212161E-02  0.494844333521E-02  0.544078619798E-02  0.598165953258E-02  0.657576831750E-02
  0.722826003021E-02  0.794476388280E-02  0.873143311434E-02  0.959499050005E-02  0.105427772302E-01
  0.115828052992E-01  0.127238135281E-01  0.139753273204E-01  0.153477222184E-01  0.168522912874E-01
  0.185013163021E-01  0.203081426450E-01  0.222872577470E-01  0.244543727990E-01  0.268265073495E-01
  0.294220762546E-01  0.322609782799E-01  0.353646854503E-01  0.387563320054E-01  0.424608015406E-01
  0.465048105882E-01  0.509169865205E-01  0.557279372258E-01  0.609703095153E-01  0.666788326649E-01
  0.728903428671E-01  0.796437836679E-01  0.869801766892E-01  0.949425560877E-01  0.103575859280E+00
  0.112926765482E+00  0.123043472568E+00  0.133975401709E+00  0.145772818154E+00  0.158486355515E+00
  0.172166429959E+00  0.186862529930E+00  0.202622366484E+00  0.219490869151E+00  0.237509012516E+00
  0.256712459715E+00  0.277130010819E+00  0.298781847009E+00  0.321677565685E+00  0.345814007537E+00
  0.371172884504E+00  0.397718227718E+00  0.425393687396E+00  0.454119732507E+00  0.483790817157E+00
  0.514272603173E+00  0.545399354365E+00  0.576971647066E+00  0.608754573229E+00  0.640476645484E+00
  0.671829646329E+00  0.702469693505E+00  0.732019817071E+00  0.760074355835E+00  0.786205475795E+00
  0.809972083316E+00  0.830931342341E+00  0.848652897728E+00  0.862735745343E+00  0.872827463326E+00
  0.878645219329E+00  0.879997590650E+00  0.876805779912E+00  0.869122290802E+00  0.857144573957E+00
  0.841220610829E+00  0.821842947683E+00  0.799627428645E+00  0.775272945801E+00  0.749499098895E+00
  0.722959935545E+00  0.696134130309E+00  0.669203065111E+00  0.642185869218E+00  0.615167461407E+00
  0.588232219453E+00  0.561457522000E+00  0.534914465512E+00  0.508668611697E+00  0.482780719066E+00
  0.457307412109E+00  0.432301769809E+00  0.407813808629E+00  0.383890836579E+00  0.360577670249E+00
  0.337916688615E+00  0.315947719447E+00  0.294707754793E+00  0.274230515549E+00  0.254545905653E+00
  0.235679417180E+00  0.217651569220E+00  0.200477407766E+00  0.184166252878E+00  0.168721571879E+00
  0.154141116347E+00  0.140417261171E+00  0.127537519188E+00  0.115485180743E+00  0.104240019031E+00
  0.937790006447E-01  0.840769457024E-01  0.751070927873E-01  0.668415395533E-01  0.592515487332E-01
  0.523077287146E-01  0.459801145992E-01  0.402381866946E-01
 ae wavefunction
 -0.185602210575E-08 -0.202768964425E-08 -0.221399941118E-08 -0.241630297788E-08 -0.263606918464E-08
 -0.287489501363E-08 -0.313451742684E-08 -0.341682625711E-08 -0.372387825201E-08 -0.405791237829E-08
 -0.442136650449E-08 -0.481689559066E-08 -0.524739152368E-08 -0.571600475422E-08 -0.622616790133E-08
 -0.678162150835E-08 -0.738644214988E-08 -0.804507311051E-08 -0.876235787387E-08 -0.954357668255E-08
 -0.103944864595E-07 -0.113213644002E-07 -0.123310555831E-07 -0.134310249682E-07 -0.146294142010E-07
 -0.159351036675E-07 -0.173577802926E-07 -0.189080116208E-07 -0.205973267738E-07 -0.224383049199E-07
 -0.244446719742E-07 -0.266314062947E-07 -0.290148542271E-07 -0.316128564228E-07 -0.344448859500E-07
 -0.375321993088E-07 -0.408980015709E-07 -0.445676269801E-07 -0.485687364769E-07 -0.529315337481E-07
 -0.576890015646E-07 -0.628771603222E-07 -0.685353509055E-07 -0.747065441745E-07 -0.814376796166E-07
 -0.887800359298E-07 -0.967896365856E-07 -0.105527693699E-06 -0.115061093861E-06 -0.125462929937E-06
 -0.136813083214E-06 -0.149198860714E-06 -0.162715692936E-06 -0.177467897804E-06 -0.193569517159E-06
 -0.211145232729E-06 -0.230331369186E-06 -0.251276992624E-06 -0.274145113599E-06 -0.299114004748E-06
 -0.326378643956E-06 -0.356152295112E-06 -0.388668239632E-06 -0.424181673200E-06 -0.462971783568E-06
 -0.505344026763E-06 -0.551632620722E-06 -0.602203277193E-06 -0.657456194739E-06 -0.717829337857E-06
 -0.783802029624E-06 -0.855898887906E-06 -0.934694138021E-06 -0.102081633788E-05 -0.111495355513E-05
 -0.121785903938E-05 -0.133035743712E-05 -0.145335160087E-05 -0.158783004949E-05 -0.173487514188E-05
 -0.189567203178E-05 -0.207151847865E-05 -0.226383559553E-05 -0.247417962363E-05 -0.270425483090E-05
 -0.295592764146E-05 -0.323124211281E-05 -0.353243688828E-05 -0.386196376494E-05 -0.422250802914E-05
 -0.461701072719E-05 -0.504869305351E-05 -0.552108305571E-05 -0.603804487482E-05 -0.660381075853E-05
 -0.722301610776E-05 -0.790073784054E-05 -0.864253638320E-05 -0.945450162738E-05 -0.103433032222E-04
 -0.113162456046E-04 -0.123813282069E-04 -0.135473113217E-04 -0.148237881446E-04 -0.162212635666E-04
 -0.177512403336E-04 -0.194263132501E-04 -0.212602721614E-04 -0.232682145148E-04 -0.254666683704E-04
 -0.278737268073E-04 -0.305091947563E-04 -0.333947493741E-04 -0.365541151775E-04 -0.400132552532E-04
 -0.438005799756E-04 -0.479471747856E-04 -0.524870487107E-04 -0.574574054534E-04 -0.628989390182E-04
 -0.688561560190E-04 -0.753777269748E-04 -0.825168690947E-04 -0.903317632506E-04 -0.988860080536E-04
 -0.108249114175E-03 -0.118497042302E-03 -0.129712788380E-03 -0.141987020063E-03 -0.155418768602E-03
 -0.170116180701E-03 -0.186197335219E-03 -0.203791129918E-03 -0.223038243868E-03 -0.244092181473E-03
 -0.267120404500E-03 -0.292305558943E-03 -0.319846803958E-03 -0.349961250608E-03 -0.382885518622E-03
 -0.418877419855E-03 -0.458217777672E-03 -0.501212391975E-03 -0.548194160142E-03 -0.599525364658E-03
 -0.655600138774E-03 -0.716847122033E-03 -0.783732318050E-03 -0.856762167404E-03 -0.936486848985E-03
 -0.102350382358E-02 -0.111846163388E-02 -0.122206397532E-02 -0.133507405270E-02 -0.145831923725E-02
 -0.159269603935E-02 -0.173917541162E-02 -0.189880839725E-02 -0.207273213769E-02 -0.226217625345E-02
 -0.246846961092E-02 -0.269304748679E-02 -0.293745914052E-02 -0.320337580342E-02 -0.349259909064E-02
 -0.380706983998E-02 -0.414887737831E-02 -0.452026921260E-02 -0.492366113867E-02 -0.536164775553E-02
 -0.583701336798E-02 -0.635274325343E-02 -0.691203526194E-02 -0.751831171014E-02 -0.817523152080E-02
 -0.888670254944E-02 -0.965689402827E-02 -0.104902490452E-01 -0.113914969623E-01 -0.123656656625E-01
 -0.134180934989E-01 -0.145544408016E-01 -0.157807007796E-01 -0.171032096369E-01 -0.185286556975E-01
 -0.200640873167E-01 -0.217169193271E-01 -0.234949377482E-01 -0.254063024549E-01 -0.274595474724E-01
 -0.296635785274E-01 -0.320276674405E-01 -0.345614428987E-01 -0.372748770880E-01 -0.401782676132E-01
 -0.432822140819E-01 -0.465975887012E-01 -0.501355002324E-01 -0.539072506823E-01 -0.579242841706E-01
 -0.621981274916E-01 -0.667403219690E-01 -0.715623462631E-01 -0.766755298338E-01 -0.820909567651E-01
 -0.878193596338E-01 -0.938710030574E-01 -0.100255556517E+00 -0.106981956055E+00 -0.114058254514E+00
 -0.121491460146E+00 -0.129287363552E+00 -0.137450353158E+00 -0.145983219582E+00 -0.154886949464E+00
 -0.164160509587E+00 -0.173800622318E+00 -0.183801533757E+00 -0.194154776246E+00 -0.204848927281E+00
 -0.215869367207E+00 -0.227198038468E+00 -0.238813209540E+00 -0.250689247065E+00 -0.262796400033E+00
 -0.275100600166E+00 -0.287563282970E+00 -0.300141234099E+00 -0.312786465923E+00 -0.325446129320E+00
 -0.338062465862E+00 -0.350572805577E+00 -0.362909615251E+00 -0.375000601436E+00 -0.386768870377E+00
 -0.398133143453E+00 -0.409008021184E+00 -0.419304282357E+00 -0.428929200469E+00 -0.437786862381E+00
 -0.445778488696E+00 -0.452802782787E+00 -0.458756368448E+00 -0.463534396852E+00 -0.467031385896E+00
 -0.469142285666E+00 -0.469763677249E+00 -0.468794978661E+00 -0.466139578007E+00 -0.461705888544E+00
 -0.455408360504E+00 -0.447168479908E+00 -0.436915760191E+00 -0.424588711958E+00 -0.410135768790E+00
 -0.393516150087E+00 -0.374700650009E+00 -0.353672348909E+00 -0.330427248215E+00 -0.304974830720E+00
 -0.277338546926E+00 -0.247556225002E+00 -0.215680398047E+00 -0.181778538216E+00 -0.145933183289E+00
 -0.108241938465E+00 -0.688173349364E-01 -0.277865281328E-01  0.147091774166E-01  0.585149834896E-01
  0.103463434903E+00  0.149375437168E+00  0.196061462323E+00  0.243322967634E+00  0.290954066378E+00
  0.338743463679E+00  0.386476540286E+00  0.433937192523E+00  0.480908735793E+00  0.527173249133E+00
  0.572509625542E+00  0.616692024827E+00  0.659490962465E+00  0.700677701452E+00  0.740030211397E+00
  0.777338380187E+00  0.812407552739E+00  0.845060836724E+00  0.875140888570E+00  0.902511558030E+00
  0.927059415997E+00  0.948695026675E+00  0.967353808815E+00  0.982996394253E+00  0.995608464948E+00
  0.100520010079E+01  0.101180471092E+01  0.101547761546E+01  0.101629436498E+01  0.101434885006E+01
  0.100975127218E+01  0.100262601605E+01  0.993109467825E+00  0.981347816634E+00  0.967494871523E+00
  0.951709926210E+00  0.934155703159E+00  0.914996411259E+00  0.894395932159E+00  0.872516173831E+00
  0.849515595205E+00  0.825547913738E+00  0.800760997265E+00  0.775295938896E+00  0.749286316757E+00
  0.722857646586E+00  0.696127037253E+00  0.669203065111E+00  0.642185869218E+00  0.615167461407E+00
  0.588232219453E+00  0.561457522000E+00  0.534914465512E+00  0.508668611697E+00  0.482780719066E+00
  0.457307412109E+00  0.432301769809E+00  0.407813808629E+00  0.383890836579E+00  0.360577670249E+00
  0.337916688615E+00  0.315947719447E+00  0.294707754793E+00  0.274230515549E+00  0.254545905653E+00
  0.235679417180E+00  0.217651569220E+00  0.200477407766E+00  0.184166252878E+00  0.168721571879E+00
  0.154141116347E+00  0.140417261171E+00  0.127537519188E+00  0.115485180743E+00  0.104240019031E+00
  0.937790006447E-01  0.840769457024E-01  0.751070927873E-01  0.668415395533E-01  0.592515487332E-01
  0.523077287146E-01  0.459801145992E-01  0.402381866946E-01
 pseudo wavefunction
  0.717304816426E-12  0.789579778083E-12  0.869137097184E-12  0.956710537242E-12  0.105310779509E-11
  0.115921795035E-11  0.127601966544E-11  0.140459021193E-11  0.154611540623E-11  0.170190054651E-11
  0.187338245156E-11  0.206214271267E-11  0.226992228079E-11  0.249863752348E-11  0.275039789964E-11
  0.302752541533E-11  0.333257603969E-11  0.366836327898E-11  0.403798412564E-11  0.444484762221E-11
  0.489270630310E-11  0.538569080460E-11  0.592834796199E-11  0.652568274540E-11  0.718320442105E-11
  0.790697736361E-11  0.870367698843E-11  0.958065131942E-11  0.105459887604E-10  0.116085926952E-10
  0.127782636041E-10  0.140657894546E-10  0.154830451995E-10  0.170431023007E-10  0.187603492880E-10
  0.206506244661E-10  0.227313619920E-10  0.250217526720E-10  0.275429209596E-10  0.303181197882E-10
  0.333729450347E-10  0.367355715919E-10  0.404370132279E-10  0.445114086287E-10  0.489963362613E-10
  0.539331609628E-10  0.593674154520E-10  0.653492202801E-10  0.719337460970E-10  0.791817224937E-10
  0.871599981161E-10  0.959421572147E-10  0.105609198317E-09  0.116250281285E-09  0.127963549637E-09
  0.140857035741E-09  0.155049657196E-09  0.170672313623E-09  0.187869093958E-09  0.206798605396E-09
  0.227635436232E-09  0.250571766107E-09  0.275819138484E-09  0.303610411734E-09  0.334201906802E-09
  0.367875771265E-09  0.404942581605E-09  0.445744207664E-09  0.490656965738E-09  0.540095089356E-09
  0.594514549781E-09  0.654417261456E-09  0.720355711185E-09  0.792938053747E-09  0.872833720934E-09
  0.960779595746E-09  0.105758680870E-08  0.116414821891E-08  0.128144664896E-08  0.141056394952E-08
  0.155269097726E-08  0.170913857818E-08  0.188134967755E-08  0.207091258807E-08  0.227957565884E-08
  0.250926340047E-08  0.276209423479E-08  0.304040003310E-08  0.334674762300E-08  0.368396246219E-08
  0.405515469763E-08  0.446374785038E-08  0.491351039060E-08  0.540859049402E-08  0.595355430037E-08
  0.655342802669E-08  0.721374432375E-08  0.794059330334E-08  0.874067870688E-08  0.962137973338E-08
  0.105908190970E-07  0.116579379421E-07  0.128325783060E-07  0.141255738908E-07  0.155488499810E-07
  0.171155334283E-07  0.188400737179E-07  0.207383762333E-07  0.228279489482E-07  0.251280638979E-07
  0.276599349203E-07  0.304469133049E-07  0.335147031545E-07  0.368915984454E-07  0.406087439720E-07
  0.447004225831E-07  0.492043713579E-07  0.541621296375E-07  0.596194221211E-07  0.656265805611E-07
  0.722390079429E-07  0.795176894327E-07  0.875297548024E-07  0.963490975197E-07  0.106057056210E-06
  0.116743164776E-06  0.128505978089E-06  0.141453980867E-06  0.155706588116E-06  0.171395246368E-06
  0.188664645859E-06  0.207674054819E-06  0.228598788199E-06  0.251631824340E-06  0.276985584523E-06
  0.304893891779E-06  0.335614127027E-06  0.369429602417E-06  0.406652173750E-06  0.447625116054E-06
  0.492726288825E-06  0.542371620098E-06  0.597018941463E-06  0.657172209374E-06  0.723386151626E-06
  0.796271381850E-06  0.876500029124E-06  0.964811934576E-06  0.106202147208E-05  0.116902505583E-05
  0.128680940406E-05  0.141646063484E-05  0.155917427791E-05  0.171626629461E-05  0.188918520751E-05
  0.207952545118E-05  0.228904206736E-05  0.251966687943E-05  0.277352629533E-05  0.305296090252E-05
  0.336054703548E-05  0.369912051404E-05  0.407180277084E-05  0.448202960832E-05  0.493358284957E-05
  0.543062517390E-05  0.597773845752E-05  0.657996597133E-05  0.724285882364E-05  0.797252707428E-05
  0.877569598930E-05  0.965976795269E-05  0.106328906030E-04  0.117040318200E-04  0.128830622488E-04
  0.141808461175E-04  0.156093411810E-04  0.171817087054E-04  0.189124345000E-04  0.208174621043E-04
  0.229143393473E-04  0.252223796183E-04  0.277628393222E-04  0.305591131387E-04  0.336369488658E-04
  0.370246838053E-04  0.407535048431E-04  0.448577345903E-04  0.493751461848E-04  0.543473096132E-04
  0.598199726942E-04  0.658434801738E-04  0.724732347272E-04  0.797702040326E-04  0.878014784941E-04
  0.966408846400E-04  0.106369659717E-03  0.117077193541E-03  0.128861844252E-03  0.141831835291E-03
  0.156106241581E-03  0.171816073743E-03  0.189105469949E-03  0.208133006009E-03  0.229073135279E-03
  0.252117771082E-03  0.277478025570E-03  0.305386120268E-03  0.336097484986E-03  0.369893063370E-03
  0.407081845075E-03  0.448003646412E-03  0.493032163362E-03  0.542578323047E-03  0.597093962159E-03
  0.657075863440E-03  0.723070184131E-03  0.795677313333E-03  0.875557198551E-03  0.963435185194E-03
  0.106010841666E-02  0.116645284672E-02  0.128343092028E-02  0.141209998343E-02  0.155362148849E-02
  0.170927106530E-02  0.188044953560E-02  0.206869495315E-02  0.227569575890E-02  0.250330514654E-02
  0.275355674110E-02  0.302868170000E-02  0.333112735321E-02  0.366357750655E-02  0.402897453937E-02
  0.443054343508E-02  0.487181788994E-02  0.535666865201E-02  0.588933424770E-02  0.647445425884E-02
  0.711710531598E-02  0.782283997630E-02  0.859772865372E-02  0.944840476633E-02  0.103821132595E-01
  0.114067626529E-01  0.125309807442E-01  0.137641740797E-01  0.151165912742E-01  0.165993902230E-01
  0.182247092021E-01  0.200057417887E-01  0.219568154623E-01  0.240934736497E-01  0.264325608680E-01
  0.289923104803E-01  0.317924344198E-01  0.348542140415E-01  0.382005910364E-01  0.418562570738E-01
  0.458477405288E-01  0.502034882896E-01  0.549539402293E-01  0.601315934488E-01  0.657710528658E-01
  0.719090641131E-01  0.785845240372E-01  0.858384633334E-01  0.937139950299E-01  0.102256221636E+00
  0.111512092815E+00  0.121530204416E+00  0.132360528681E+00  0.144054064353E+00  0.156662394421E+00
  0.170237138280E+00  0.184829284284E+00  0.200488388113E+00  0.217261622126E+00  0.235192661116E+00
  0.254320390736E+00  0.274677426539E+00  0.296288434288E+00  0.319168246215E+00  0.343319773523E+00
  0.368731722943E+00  0.395376134996E+00  0.423205773985E+00  0.452151415151E+00  0.482119093042E+00
  0.512987397179E+00  0.544604926690E+00  0.576788044330E+00  0.609319101906E+00  0.641945342344E+00
  0.674378717023E+00  0.706296887974E+00  0.737345709811E+00  0.767143501163E+00  0.795287414005E+00
  0.821362184191E+00  0.844951488894E+00  0.865652036192E+00  0.883090357771E+00  0.896942056229E+00
  0.906952963933E+00  0.912961293787E+00  0.914919402772E+00  0.912913255436E+00  0.907177089538E+00
  0.898100192671E+00  0.886222165256E+00  0.872212671903E+00  0.856831605562E+00  0.840865979680E+00
  0.825040927110E+00  0.809904142608E+00  0.795696373638E+00  0.782506614955E+00  0.770525634831E+00
  0.759956714163E+00  0.751010937249E+00  0.743910259011E+00  0.738891088977E+00  0.000000000000E+00
  0.000000000000E+00  0.000000000000E+00  0.000000000000E+00  0.000000000000E+00  0.000000000000E+00
  0.000000000000E+00  0.000000000000E+00  0.000000000000E+00  0.000000000000E+00  0.000000000000E+00
  0.000000000000E+00  0.000000000000E+00  0.000000000000E+00  0.000000000000E+00  0.000000000000E+00
  0.000000000000E+00  0.000000000000E+00  0.000000000000E+00  0.000000000000E+00  0.000000000000E+00
  0.000000000000E+00  0.000000000000E+00  0.000000000000E+00  0.000000000000E+00  0.000000000000E+00
  0.000000000000E+00  0.000000000000E+00  0.000000000000E+00
 ae wavefunction
 -0.182336887861E-08 -0.199201623727E-08 -0.217504822138E-08 -0.237379262381E-08 -0.258969244321E-08
 -0.282431656573E-08 -0.307937139460E-08 -0.335671351446E-08 -0.365836348806E-08 -0.398652089156E-08
 -0.434358070353E-08 -0.473215117478E-08 -0.515507331458E-08 -0.561544214705E-08 -0.611662990043E-08
 -0.666231130986E-08 -0.725649122987E-08 -0.790353477336E-08 -0.860820021147E-08 -0.937567489029E-08
 -0.102116144499E-07 -0.111221856497E-07 -0.121141131410E-07 -0.131947305511E-07 -0.143720362875E-07
 -0.156547545015E-07 -0.170524016937E-07 -0.185753594911E-07 -0.202349541808E-07 -0.220435436226E-07
 -0.240146122483E-07 -0.261628748977E-07 -0.285043903311E-07 -0.310566853249E-07 -0.338388903524E-07
 -0.368718879425E-07 -0.401784749140E-07 -0.437835397987E-07 -0.477142568905E-07 -0.520002984947E-07
 -0.566740671071E-07 -0.617709494069E-07 -0.673295941435E-07 -0.733922161785E-07 -0.800049291794E-07
 -0.872181096837E-07 -0.950867955257E-07 -0.103671121898E-06 -0.113036798636E-06 -0.123255632660E-06
 -0.134406099884E-06 -0.146573971310E-06 -0.159852998500E-06 -0.174345664080E-06 -0.190164003520E-06
 -0.207430504984E-06 -0.226279094741E-06 -0.246856216320E-06 -0.269322012382E-06 -0.293851619158E-06
 -0.320636584224E-06 -0.349886419454E-06 -0.381830302069E-06 -0.416718938016E-06 -0.454826603206E-06
 -0.496453379685E-06 -0.541927605386E-06 -0.591608557976E-06 -0.645889395199E-06 -0.705200376303E-06
 -0.770012391483E-06 -0.840840828839E-06 -0.918249811163E-06 -0.100285683796E-05 -0.109533787146E-05
 -0.119643290916E-05 -0.130695208927E-05 -0.142778238015E-05 -0.155989490936E-05 -0.170435299353E-05
 -0.186232093565E-05 -0.203507366331E-05 -0.222400728752E-05 -0.243065067009E-05 -0.265667809532E-05
 -0.290392315083E-05 -0.317439393246E-05 -0.347028969854E-05 -0.379401911104E-05 -0.414822021343E-05
 -0.453578230950E-05 -0.495986992248E-05 -0.542394903027E-05 -0.593181579129E-05 -0.648762799447E-05
 -0.709593948928E-05 -0.776173787469E-05 -0.849048575158E-05 -0.928816587127E-05 -0.101613305429E-04
 -0.111171556957E-04 -0.121635000272E-04 -0.133089697095E-04 -0.145629891648E-04 -0.159358784711E-04
 -0.174389380064E-04 -0.190845409950E-04 -0.208862346780E-04 -0.228588508945E-04 -0.250186269279E-04
 -0.273833375483E-04 -0.299724392613E-04 -0.328072278617E-04 -0.359110104866E-04 -0.393092934609E-04
 -0.430299873445E-04 -0.471036307031E-04 -0.515636342574E-04 -0.564465472018E-04 -0.617923476323E-04
 -0.676447591829E-04 -0.740515961427E-04 -0.810651395072E-04 -0.887425466164E-04 -0.971462972439E-04
 -0.106344679223E-03 -0.116412316939E-03 -0.127430746281E-03 -0.139489039891E-03 -0.152684486889E-03
 -0.167123331506E-03 -0.182921575411E-03 -0.200205848876E-03 -0.219114356250E-03 -0.239797901619E-03
 -0.262421000934E-03 -0.287163087293E-03 -0.314219816510E-03 -0.343804480558E-03 -0.376149536954E-03
 -0.411508262615E-03 -0.450156541253E-03 -0.492394793854E-03 -0.538550062326E-03 -0.588978256910E-03
 -0.644066578493E-03 -0.704236127458E-03 -0.769944711227E-03 -0.841689863141E-03 -0.920012085788E-03
 -0.100549833232E-02 -0.109878573964E-02 -0.120056562783E-02 -0.131158778009E-02 -0.143266501808E-02
 -0.156467808726E-02 -0.170858086688E-02 -0.186540591911E-02 -0.203627039122E-02 -0.222238228443E-02
 -0.242504710193E-02 -0.264567488761E-02 -0.288578766570E-02 -0.314702728971E-02 -0.343116370694E-02
 -0.374010364244E-02 -0.407589970298E-02 -0.444075989848E-02 -0.483705757369E-02 -0.526734173867E-02
 -0.573434778072E-02 -0.624100853436E-02 -0.679046567878E-02 -0.738608142439E-02 -0.803145044076E-02
 -0.873041196878E-02 -0.948706204828E-02 -0.103057657806E-01 -0.111911695319E-01 -0.121482129687E-01
 -0.131821408012E-01 -0.142985140929E-01 -0.155032209768E-01 -0.168024865999E-01 -0.182028820955E-01
 -0.197113323637E-01 -0.213351224143E-01 -0.230819020041E-01 -0.249596882712E-01 -0.269768660392E-01
 -0.291421854272E-01 -0.314647563592E-01 -0.339540395192E-01 -0.366198332419E-01 -0.394722557768E-01
 -0.425217223128E-01 -0.457789161248E-01 -0.492547531988E-01 -0.529603397259E-01 -0.569069219143E-01
 -0.611058276473E-01 -0.655683995926E-01 -0.703059194303E-01 -0.753295229063E-01 -0.806501054252E-01
 -0.862782178700E-01 -0.922239522909E-01 -0.984968170668E-01 -0.105105601145E+00 -0.112058227043E+00
 -0.119361592417E+00 -0.127021400201E+00 -0.135041977477E+00 -0.143426083452E+00 -0.152174707097E+00
 -0.161286855257E+00 -0.170759332245E+00 -0.180586512292E+00 -0.190760106459E+00 -0.201268926035E+00
 -0.212098644746E+00 -0.223231562497E+00 -0.234646373732E+00 -0.246317943845E+00 -0.258217097436E+00
 -0.270310422487E+00 -0.282560094822E+00 -0.294923727444E+00 -0.307354249518E+00 -0.319799819942E+00
 -0.332203780567E+00 -0.344504654167E+00 -0.356636192008E+00 -0.368527475109E+00 -0.380103071347E+00
 -0.391283247037E+00 -0.401984226113E+00 -0.412118483690E+00 -0.421595056494E+00 -0.430319855270E+00
 -0.438195978669E+00 -0.445124055020E+00 -0.451002670920E+00 -0.455728965919E+00 -0.459199455320E+00
 -0.461311074951E+00 -0.461962356733E+00 -0.461054610921E+00 -0.458493036469E+00 -0.454187754190E+00
 -0.448054796982E+00 -0.440017086800E+00 -0.430005404079E+00 -0.417959335187E+00 -0.403828176134E+00
 -0.387571773842E+00 -0.369161294166E+00 -0.348579913104E+00 -0.325823432119E+00 -0.300900819491E+00
 -0.273834678356E+00 -0.244661639057E+00 -0.213432669660E+00 -0.180213294416E+00 -0.145083706077E+00
 -0.108138755202E+00 -0.694877983781E-01 -0.292543886053E-01  0.124242049719E-01  0.553976547185E-01
  0.995034105570E-01  0.144567713936E+00  0.190406796687E+00  0.236828288830E+00  0.283632873721E+00
  0.330616203537E+00  0.377570961084E+00  0.424288684871E+00  0.470560678793E+00  0.516177394016E+00
  0.560926537774E+00  0.604591568064E+00  0.646952765005E+00  0.687791540133E+00  0.726896289044E+00
  0.764067518924E+00  0.799121340365E+00  0.831891752301E+00  0.862232419650E+00  0.890018316154E+00
  0.915147258246E+00  0.937541194814E+00  0.957147101106E+00  0.973937387030E+00  0.987909801732E+00
  0.999086866529E+00  0.100751490840E+01  0.101326276042E+01  0.101642021640E+01  0.101709629204E+01
  0.101541736434E+01  0.101152523002E+01  0.100557512850E+01  0.997733767661E+00  0.988177386206E+00
  0.977089886322E+00  0.964661070282E+00  0.951085017855E+00  0.936558622535E+00  0.921280329545E+00
  0.905449084200E+00  0.889263508429E+00  0.872921313820E+00  0.856618958291E+00  0.840551558908E+00
  0.824913083244E+00  0.809896848807E+00  0.795696373638E+00  0.782506614955E+00  0.770525634831E+00
  0.759956714163E+00  0.751010937249E+00  0.743910259011E+00  0.738891088977E+00  0.000000000000E+00
  0.000000000000E+00  0.000000000000E+00  0.000000000000E+00  0.000000000000E+00  0.000000000000E+00
  0.000000000000E+00  0.000000000000E+00  0.000000000000E+00  0.000000000000E+00  0.000000000000E+00
  0.000000000000E+00  0.000000000000E+00  0.000000000000E+00  0.000000000000E+00  0.000000000000E+00
  0.000000000000E+00  0.000000000000E+00  0.000000000000E+00  0.000000000000E+00  0.000000000000E+00
  0.000000000000E+00  0.000000000000E+00  0.000000000000E+00  0.000000000000E+00  0.000000000000E+00
  0.000000000000E+00  0.000000000000E+00  0.000000000000E+00
 pseudo wavefunction
  0.103398040074E-04  0.106760286462E-04  0.110231864721E-04  0.113816330053E-04  0.117517353264E-04
  0.121338724526E-04  0.125284357260E-04  0.129358292138E-04  0.133564701228E-04  0.137907892262E-04
  0.142392313048E-04  0.147022556029E-04  0.151803362978E-04  0.156739629864E-04  0.161836411857E-04
  0.167098928510E-04  0.172532569104E-04  0.178142898166E-04  0.183935661165E-04  0.189916790402E-04
  0.196092411082E-04  0.202468847584E-04  0.209052629942E-04  0.215850500532E-04  0.222869420974E-04
  0.230116579264E-04  0.237599397134E-04  0.245325537652E-04  0.253302913073E-04  0.261539692937E-04
  0.270044312438E-04  0.278825481066E-04  0.287892191518E-04  0.297253728915E-04  0.306919680309E-04
  0.316899944499E-04  0.327204742170E-04  0.337844626359E-04  0.348830493266E-04  0.360173593408E-04
  0.371885543144E-04  0.383978336569E-04  0.396464357802E-04  0.409356393663E-04  0.422667646772E-04
  0.436411749068E-04  0.450602775773E-04  0.465255259801E-04  0.480384206649E-04  0.496005109758E-04
  0.512133966384E-04  0.528787293981E-04  0.545982147116E-04  0.563736134935E-04  0.582067439201E-04
  0.600994832911E-04  0.620537699522E-04  0.640716052806E-04  0.661550557347E-04  0.683062549703E-04
  0.705274060257E-04  0.728207835787E-04  0.751887362755E-04  0.776336891365E-04  0.801581460403E-04
  0.827646922877E-04  0.854559972499E-04  0.882348171023E-04  0.911039976480E-04  0.940664772318E-04
  0.971252897507E-04  0.100283567760E-03  0.103544545685E-03  0.106911563130E-03  0.110388068300E-03
  0.113977621537E-03  0.117683898961E-03  0.121510696239E-03  0.125461932472E-03  0.129541654212E-03
  0.133754039603E-03  0.138103402666E-03  0.142594197713E-03  0.147231023918E-03  0.152018630019E-03
  0.156961919193E-03  0.162065954072E-03  0.167335961935E-03  0.172777340062E-03  0.178395661264E-03
  0.184196679593E-03  0.190186336241E-03  0.196370765625E-03  0.202756301677E-03  0.209349484332E-03
  0.216157066234E-03  0.223186019655E-03  0.230443543642E-03  0.237937071399E-03  0.245674277905E-03
  0.253663087782E-03  0.261911683423E-03  0.270428513381E-03  0.279222301029E-03  0.288302053514E-03
  0.297677070987E-03  0.307356956149E-03  0.317351624100E-03  0.327671312510E-03  0.338326592127E-03
  0.349328377625E-03  0.360687938804E-03  0.372416912163E-03  0.384527312843E-03  0.397031546969E-03
  0.409942424391E-03  0.423273171842E-03  0.437037446529E-03  0.451249350168E-03  0.465923443481E-03
  0.481074761167E-03  0.496718827362E-03  0.512871671615E-03  0.529549845379E-03  0.546770439050E-03
  0.564551099566E-03  0.582910048588E-03  0.601866101273E-03  0.621438685675E-03  0.641647862782E-03
  0.662514347216E-03  0.684059528620E-03  0.706305493750E-03  0.729275049306E-03  0.752991745512E-03
  0.777479900493E-03  0.802764625452E-03  0.828871850692E-03  0.855828352511E-03  0.883661780992E-03
  0.912400688729E-03  0.942074560515E-03  0.972713844031E-03  0.100434998158E-02  0.103701544286E-02
  0.107074375892E-02  0.110556955718E-02  0.114152859772E-02  0.117865781077E-02  0.121699533551E-02
  0.125658056017E-02  0.129745416357E-02  0.133965815803E-02  0.138323593388E-02  0.142823230539E-02
  0.147469355844E-02  0.152266749978E-02  0.157220350811E-02  0.162335258690E-02  0.167616741921E-02
  0.173070242437E-02  0.178701381680E-02  0.184515966696E-02  0.190519996452E-02  0.196719668386E-02
  0.203121385208E-02  0.209731761949E-02  0.216557633279E-02  0.223606061111E-02  0.230884342486E-02
  0.238400017780E-02  0.246160879220E-02  0.254174979748E-02  0.262450642235E-02  0.270996469069E-02
  0.279821352142E-02  0.288934483248E-02  0.298345364913E-02  0.308063821698E-02  0.318100011977E-02
  0.328464440243E-02  0.339167969942E-02  0.350221836905E-02  0.361637663376E-02  0.373427472696E-02
  0.385603704680E-02  0.398179231724E-02  0.411167375696E-02  0.424581925659E-02  0.438437156483E-02
  0.452747848409E-02  0.467529307619E-02  0.482797387898E-02  0.498568513459E-02  0.514859703006E-02
  0.531688595140E-02  0.549073475197E-02  0.567033303634E-02  0.585587746063E-02  0.604757205089E-02
  0.624562854060E-02  0.645026672907E-02  0.666171486216E-02  0.688021003738E-02  0.710599863506E-02
  0.733933677797E-02  0.758049082162E-02  0.782973787786E-02  0.808736637446E-02  0.835367665398E-02
  0.862898161494E-02  0.891360739928E-02  0.920789412984E-02  0.951219670244E-02  0.982688563714E-02
  0.101523479941E-01  0.104889883596E-01  0.108372299084E-01  0.111975155499E-01  0.115703091642E-01
  0.119560969380E-01  0.123553888076E-01  0.127687200201E-01  0.131966528219E-01  0.136397782887E-01
  0.140987183063E-01  0.145741277188E-01  0.150666966584E-01  0.155771530734E-01  0.161062654716E-01
  0.166548459002E-01  0.172237531831E-01  0.178138964374E-01  0.184262388975E-01  0.190618020712E-01
  0.197216702596E-01  0.204069954734E-01  0.211190027794E-01  0.218589961173E-01  0.226283646269E-01
  0.234285895306E-01  0.242612516200E-01  0.251280393987E-01  0.260307579363E-01  0.269713384946E-01
  0.279518489911E-01  0.289745053677E-01  0.300416839382E-01  0.311559347940E-01  0.323199963508E-01
  0.335368111225E-01  0.348095428171E-01  0.361415948496E-01  0.375366303727E-01  0.389985939302E-01
  0.405317348391E-01  0.421406324096E-01  0.438302231118E-01  0.456058297971E-01  0.474731930794E-01
  0.494385049755E-01  0.515084448952E-01  0.536902180597E-01  0.559915964094E-01  0.584209620408E-01
  0.609873531824E-01  0.637005126828E-01  0.665709389407E-01  0.696099391468E-01  0.728296846412E-01
  0.762432681047E-01  0.798647622033E-01  0.837092791829E-01  0.877930307705E-01  0.921333875670E-01
  0.967489369227E-01  0.101659538051E+00  0.106886372872E+00  0.112451990767E+00  0.118380345068E+00
  0.124696818706E+00  0.131428235978E+00  0.138602856888E+00  0.146250349920E+00  0.154401738485E+00
  0.163089315574E+00  0.172346520387E+00  0.182207769898E+00  0.192708237455E+00  0.203883569645E+00
  0.215769531724E+00  0.228401571094E+00  0.241814287469E+00  0.256040797711E+00  0.271111982831E+00
  0.287055604450E+00  0.303895278201E+00  0.321649292274E+00  0.340329260745E+00  0.359938603614E+00
  0.380470848931E+00  0.401907757176E+00  0.424217274564E+00  0.447351330374E+00  0.471243504216E+00
  0.495806602531E+00  0.520930200027E+00  0.546478221263E+00  0.572286660510E+00  0.598161564147E+00
  0.623877428996E+00  0.649176201480E+00  0.673767095161E+00  0.697327476281E+00  0.719505095947E+00
  0.739921969870E+00  0.758180217616E+00  0.773870167110E+00  0.786578084225E+00  0.796037941605E+00
  0.802233113677E+00  0.805198727242E+00  0.804989739100E+00  0.801680761752E+00  0.795365916074E+00
  0.786158633705E+00  0.774191359130E+00  0.759615082475E+00  0.742598625052E+00  0.723327620932E+00
  0.702003099769E+00  0.678839612564E+00  0.654062846272E+00  0.627906727517E+00  0.600610076204E+00
  0.572412942927E+00  0.543552807427E+00  0.514260907578E+00  0.484758874059E+00  0.455255908501E+00
  0.425946621540E+00  0.397009592923E+00  0.368606636737E+00  0.340882688148E+00  0.313966176860E+00
  0.287969720526E+00  0.262990960844E+00  0.239113377437E+00  0.216406949361E+00  0.194928587560E+00
  0.174722325462E+00  0.155819317443E+00  0.138237743347E+00
 ae wavefunction
  0.154957756090E-02  0.159727701048E-02  0.164643677604E-02  0.169710106861E-02  0.174931540564E-02
  0.180312664759E-02  0.185858303544E-02  0.191573422902E-02  0.197463134639E-02  0.203532700408E-02
  0.209787535818E-02  0.216233214655E-02  0.222875473181E-02  0.229720214541E-02  0.236773513259E-02
  0.244041619831E-02  0.251530965418E-02  0.259248166630E-02  0.267200030411E-02  0.275393559019E-02
  0.283835955098E-02  0.292534626845E-02  0.301497193277E-02  0.310731489577E-02  0.320245572547E-02
  0.330047726132E-02  0.340146467044E-02  0.350550550464E-02  0.361268975824E-02  0.372310992667E-02
  0.383686106586E-02  0.395404085222E-02  0.407474964336E-02  0.419909053936E-02  0.432716944457E-02
  0.445909512988E-02  0.459497929538E-02  0.473493663336E-02  0.487908489143E-02  0.502754493593E-02
  0.518044081517E-02  0.533789982267E-02  0.550005256016E-02  0.566703300019E-02  0.583897854816E-02
  0.601603010374E-02  0.619833212138E-02  0.638603266969E-02  0.657928348962E-02  0.677824005109E-02
  0.698306160784E-02  0.719391125028E-02  0.741095595601E-02  0.763436663774E-02  0.786431818819E-02
  0.810098952178E-02  0.834456361253E-02  0.859522752792E-02  0.885317245815E-02  0.911859374043E-02
  0.939169087777E-02  0.967266755163E-02  0.996173162802E-02  0.102590951563E-01  0.105649743602E-01
  0.108795896201E-01  0.112031654459E-01  0.115359304400E-01  0.118781172494E-01  0.122299625052E-01
  0.125917067504E-01  0.129635943529E-01  0.133458734039E-01  0.137387956006E-01  0.141426161114E-01
  0.145575934222E-01  0.149839891634E-01  0.154220679154E-01  0.158720969913E-01  0.163343461948E-01
  0.168090875526E-01  0.172965950186E-01  0.177971441482E-01  0.183110117414E-01  0.188384754510E-01
  0.193798133564E-01  0.199353034973E-01  0.205052233683E-01  0.210898493691E-01  0.216894562094E-01
  0.223043162649E-01  0.229346988817E-01  0.235808696263E-01  0.242430894778E-01  0.249216139586E-01
  0.256166922014E-01  0.263285659472E-01  0.270574684725E-01  0.278036234401E-01  0.285672436712E-01
  0.293485298327E-01  0.301476690379E-01  0.309648333545E-01  0.318001782152E-01  0.326538407287E-01
  0.335259378836E-01  0.344165646420E-01  0.353257919181E-01  0.362536644362E-01  0.372001984640E-01
  0.381653794153E-01  0.391491593185E-01  0.401514541449E-01  0.411721409927E-01  0.422110551221E-01
  0.432679868364E-01  0.443426782053E-01  0.454348196268E-01  0.465440462225E-01  0.476699340650E-01
  0.488119962325E-01  0.499696786894E-01  0.511423559914E-01  0.523293268125E-01  0.535298092958E-01
  0.547429362267E-01  0.559677500314E-01  0.572031976038E-01  0.584481249638E-01  0.597012717537E-01
  0.609612655798E-01  0.622266162081E-01  0.634957096254E-01  0.647668019791E-01  0.660380134113E-01
  0.673073218064E-01  0.685725564724E-01  0.698313917812E-01  0.710813407963E-01  0.723197489182E-01
  0.735437875846E-01  0.747504480647E-01  0.759365353926E-01  0.770986624896E-01  0.782332445302E-01
  0.793364936127E-01  0.804044138005E-01  0.814327966085E-01  0.824172170126E-01  0.833530300703E-01
  0.842353682461E-01  0.850591395427E-01  0.858190265491E-01  0.865094865210E-01  0.871247526215E-01
  0.876588364558E-01  0.881055320412E-01  0.884584213669E-01  0.887108816995E-01  0.888560948055E-01
  0.888870582639E-01  0.887965990534E-01  0.885773896035E-01  0.882219665054E-01  0.877227520829E-01
  0.870720790288E-01  0.862622183127E-01  0.852854105665E-01  0.841339011559E-01  0.827999791370E-01
  0.812760202949E-01  0.795545344493E-01  0.776282172008E-01  0.754900062726E-01  0.731331425833E-01
  0.705512361603E-01  0.677383369711E-01  0.646890107164E-01  0.613984195826E-01  0.578624079063E-01
  0.540775926449E-01  0.500414584840E-01  0.457524573435E-01  0.412101119597E-01  0.364151231342E-01
  0.313694801430E-01  0.260765736868E-01  0.205413106531E-01  0.147702298347E-01  0.877161762641E-02
  0.255562259646E-02 -0.386563228374E-02 -0.104779410748E-01 -0.172649113820E-01 -0.242078674431E-01
 -0.312857613819E-01 -0.384750943404E-01 -0.457498493809E-01 -0.530814382862E-01 -0.604386646775E-01
 -0.677877061719E-01 -0.750921185712E-01 -0.823128652629E-01 -0.894083750826E-01 -0.963346318357E-01
 -0.103045298482E+00 -0.109491878695E+00 -0.115623918168E+00 -0.121389247680E+00 -0.126734269657E+00
 -0.131604289646E+00 -0.135943893820E+00 -0.139697373203E+00 -0.142809194830E+00 -0.145224519453E+00
 -0.146889764738E+00 -0.147753212149E+00 -0.147765654935E+00 -0.146881083694E+00 -0.145057405087E+00
 -0.142257188171E+00 -0.138448431774E+00 -0.133605345127E+00 -0.127709132801E+00 -0.120748773794E+00
 -0.112721783402E+00 -0.103634945413E+00 -0.935050011042E-01 -0.823592806510E-01 -0.702362618290E-01
 -0.571860403895E-01 -0.432706962044E-01 -0.285645392447E-01 -0.131542197472E-01  0.286131227888E-02
  0.193710114008E-01  0.362521151471E-01  0.533707018756E-01  0.705824274694E-01  0.877334345284E-01
  0.104661425724E+00  0.121196898077E+00  0.137164547891E+00  0.152384871627E+00  0.166675992985E+00
  0.179855726392E+00  0.191743845219E+00  0.202164488309E+00  0.210948636487E+00  0.217936613534E+00
  0.222980585962E+00  0.225947039112E+00  0.226719198523E+00  0.225199355651E+00  0.221311052277E+00
  0.215001079303E+00  0.206241250957E+00  0.195029921709E+00  0.181393218808E+00  0.165385967213E+00
  0.147092286334E+00  0.126625839510E+00  0.104129718277E+00  0.797759445870E-01  0.537645757912E-01
  0.263224001359E-01 -0.229878473005E-02 -0.318243106486E-01 -0.619591862220E-01 -0.923910326170E-01
 -0.122793378046E+00 -0.152829275142E+00 -0.182155206407E+00 -0.210425249734E+00 -0.237295476672E+00
 -0.262428523267E+00 -0.285498169442E+00 -0.306193582423E+00 -0.324222736729E+00 -0.339314688282E+00
 -0.351221055481E+00 -0.359717895868E+00 -0.364609194020E+00 -0.365731917667E+00 -0.362961201687E+00
 -0.356214219604E+00 -0.345452359971E+00 -0.330682100329E+00 -0.311955017570E+00 -0.289367126836E+00
 -0.263057558543E+00 -0.233206536943E+00 -0.200032657237E+00 -0.163789516005E+00 -0.124761795059E+00
 -0.832609220214E-01 -0.396204388735E-01  0.580879866808E-02  0.526634760598E-01  0.100572629216E+00
  0.149162318490E+00  0.198060090079E+00  0.246899157501E+00  0.295322246481E+00  0.342985056748E+00
  0.389559305724E+00  0.434735331710E+00  0.478224248522E+00  0.519759650410E+00  0.559098888214E+00
  0.596023935629E+00  0.630341876777E+00  0.661885048825E+00  0.690510877694E+00  0.716101453180E+00
  0.738562902116E+00  0.757824628035E+00  0.773838502392E+00  0.786578084225E+00  0.796037941605E+00
  0.802233113677E+00  0.805198727242E+00  0.804989739100E+00  0.801680761752E+00  0.795365916074E+00
  0.786158633705E+00  0.774191359130E+00  0.759615082475E+00  0.742598625052E+00  0.723327620932E+00
  0.702003099769E+00  0.678839612564E+00  0.654062846272E+00  0.627906727517E+00  0.600610076204E+00
  0.572412942927E+00  0.543552807427E+00  0.514260907578E+00  0.484758874059E+00  0.455255908501E+00
  0.425946621540E+00  0.397009592923E+00  0.368606636737E+00  0.340882688148E+00  0.313966176860E+00
  0.287969720526E+00  0.262990960844E+00  0.239113377437E+00  0.216406949361E+00  0.194928587560E+00
  0.174722325462E+00  0.155819317443E+00  0.138237743347E+00
 pseudo wavefunction
  0.272500362200E-04  0.281361394423E-04  0.290510565334E-04  0.299957244486E-04  0.309711106108E-04
  0.319782139010E-04  0.330180656815E-04  0.340917308519E-04  0.352003089397E-04  0.363449352262E-04
  0.375267819094E-04  0.387470593045E-04  0.400070170827E-04  0.413079455520E-04  0.426511769776E-04
  0.440380869470E-04  0.454700957783E-04  0.469486699750E-04  0.484753237276E-04  0.500516204647E-04
  0.516791744534E-04  0.533596524531E-04  0.550947754223E-04  0.568863202808E-04  0.587361217294E-04
  0.606460741294E-04  0.626181334419E-04  0.646543192312E-04  0.667567167333E-04  0.689274789909E-04
  0.711688290588E-04  0.734830622800E-04  0.758725486372E-04  0.783397351789E-04  0.808871485264E-04
  0.835173974608E-04  0.862331755946E-04  0.890372641307E-04  0.919325347104E-04  0.949219523543E-04
  0.980085784989E-04  0.101195574132E-03  0.104486203029E-03  0.107883835098E-03  0.111391949828E-03
  0.115014139853E-03  0.118754114633E-03  0.122615704252E-03  0.126602863340E-03  0.130719675124E-03
  0.134970355610E-03  0.139359257898E-03  0.143890876646E-03  0.148569852667E-03  0.153400977685E-03
  0.158389199245E-03  0.163539625775E-03  0.168857531821E-03  0.174348363448E-03  0.180017743821E-03
  0.185871478959E-03  0.191915563686E-03  0.198156187768E-03  0.204599742256E-03  0.211252826029E-03
  0.218122252553E-03  0.225215056862E-03  0.232538502764E-03  0.240100090277E-03  0.247907563315E-03
  0.255968917621E-03  0.264292408951E-03  0.272886561541E-03  0.281760176828E-03  0.290922342474E-03
  0.300382441670E-03  0.310150162754E-03  0.320235509130E-03  0.330648809519E-03  0.341400728542E-03
  0.352502277643E-03  0.363964826373E-03  0.375800114038E-03  0.388020261727E-03  0.400637784731E-03
  0.413665605370E-03  0.427117066231E-03  0.441005943842E-03  0.455346462792E-03  0.470153310306E-03
  0.485441651301E-03  0.501227143926E-03  0.517525955614E-03  0.534354779653E-03  0.551730852300E-03
  0.569671970450E-03  0.588196509886E-03  0.607323444116E-03  0.627072363831E-03  0.647463496998E-03
  0.668517729601E-03  0.690256627070E-03  0.712702456397E-03  0.735878208986E-03  0.759807624239E-03
  0.784515213922E-03  0.810026287317E-03  0.836366977205E-03  0.863564266693E-03  0.891646016921E-03
  0.920640995674E-03  0.950578906934E-03  0.981490421391E-03  0.101340720797E-02  0.104636196637E-02
  0.108038846068E-02  0.111552155414E-02  0.115179724491E-02  0.118925270323E-02  0.122792630957E-02
  0.126785769421E-02  0.130908777803E-02  0.135165881468E-02  0.139561443412E-02  0.144099968764E-02
  0.148786109430E-02  0.153624668896E-02  0.158620607190E-02  0.163779046003E-02  0.169105273989E-02
  0.174604752231E-02  0.180283119897E-02  0.186146200083E-02  0.192200005844E-02  0.198450746441E-02
  0.204904833779E-02  0.211568889081E-02  0.218449749767E-02  0.225554476582E-02  0.232890360954E-02
  0.240464932604E-02  0.248285967415E-02  0.256361495573E-02  0.264699809976E-02  0.273309474944E-02
  0.282199335214E-02  0.291378525260E-02  0.300856478925E-02  0.310642939393E-02  0.320747969505E-02
  0.331181962442E-02  0.341955652779E-02  0.353080127932E-02  0.364566840015E-02  0.376427618116E-02
  0.388674681017E-02  0.401320650374E-02  0.414378564374E-02  0.427861891902E-02  0.441784547213E-02
  0.456160905168E-02  0.471005817030E-02  0.486334626856E-02  0.502163188518E-02  0.518507883374E-02
  0.535385638626E-02  0.552813946390E-02  0.570810883533E-02  0.589395132284E-02  0.608586001693E-02
  0.628403449954E-02  0.648868107657E-02  0.670001302006E-02  0.691825082068E-02  0.714362245097E-02
  0.737636364004E-02  0.761671816039E-02  0.786493812746E-02  0.812128431284E-02  0.838602647179E-02
  0.865944368608E-02  0.894182472307E-02  0.923346841208E-02  0.953468403916E-02  0.984579176147E-02
  0.101671230426E-01  0.104990211104E-01  0.108418414383E-01  0.111959522530E-01  0.115617350688E-01
  0.119395852516E-01  0.123299126150E-01  0.127331420495E-01  0.131497141885E-01  0.135800861140E-01
  0.140247321038E-01  0.144841444253E-01  0.149588341770E-01  0.154493321851E-01  0.159561899554E-01
  0.164799806895E-01  0.170213003659E-01  0.175807688957E-01  0.181590313565E-01  0.187567593112E-01
  0.193746522207E-01  0.200134389563E-01  0.206738794220E-01  0.213567662956E-01  0.220629268983E-01
  0.227932252059E-01  0.235485640120E-01  0.243298872575E-01  0.251381825415E-01  0.259744838295E-01
  0.268398743757E-01  0.277354898801E-01  0.286625218997E-01  0.296222215384E-01  0.306159034393E-01
  0.316449501070E-01  0.327108165898E-01  0.338150355549E-01  0.349592227899E-01  0.361450831712E-01
  0.373744171398E-01  0.386491277312E-01  0.399712282070E-01  0.413428503437E-01  0.427662534369E-01
  0.442438340819E-01  0.457781368027E-01  0.473718655997E-01  0.490278964989E-01  0.507492911873E-01
  0.525393118276E-01  0.544014371529E-01  0.563393799467E-01  0.583571060254E-01  0.604588548434E-01
  0.626491618532E-01  0.649328827580E-01  0.673152198037E-01  0.698017502654E-01  0.723984572898E-01
  0.751117632640E-01  0.779485658842E-01  0.809162771077E-01  0.840228651703E-01  0.872768998567E-01
  0.906876012078E-01  0.942648918480E-01  0.980194531032E-01  0.101962785072E+00  0.106107270788E+00
  0.110466244591E+00  0.115054064786E+00  0.119886190614E+00  0.124979263522E+00  0.130351192615E+00
  0.136021244113E+00  0.142010134485E+00  0.148340126824E+00  0.155035129846E+00  0.162120798680E+00
  0.169624636400E+00  0.177576094932E+00  0.186006673647E+00  0.194950013534E+00  0.204441984393E+00
  0.214520761913E+00  0.225226890883E+00  0.236603330043E+00  0.248695473227E+00  0.261551140495E+00
  0.275220531851E+00  0.289756134896E+00  0.305212576401E+00  0.321646406199E+00  0.339115800134E+00
  0.357680166887E+00  0.377399641530E+00  0.398334446464E+00  0.420544098152E+00  0.444086435711E+00
  0.469016445137E+00  0.495384850613E+00  0.523236442382E+00  0.552608108895E+00  0.583526539824E+00
  0.616005566175E+00  0.650043104432E+00  0.685617673962E+00  0.722684461004E+00  0.761170909300E+00
  0.800971827192E+00  0.841944014732E+00  0.883900432754E+00  0.926603959961E+00  0.969760814832E+00
  0.101301375754E+01  0.105593523422E+01  0.109802068265E+01  0.113868228517E+01  0.117724353217E+01
  0.121293504693E+01  0.124489221895E+01  0.127215529570E+01  0.129367268764E+01  0.130830834291E+01
  0.131485413603E+01  0.131204827918E+01  0.129860078753E+01  0.127322699376E+01  0.123468998577E+01
  0.118185260911E+01  0.111373929960E+01  0.102960746068E+01  0.929028560571E+00  0.812105644959E+00
  0.679586715303E+00  0.532584937147E+00  0.372572024529E+00  0.201405000930E+00  0.000000000000E+00
  0.000000000000E+00  0.000000000000E+00  0.000000000000E+00  0.000000000000E+00  0.000000000000E+00
  0.000000000000E+00  0.000000000000E+00  0.000000000000E+00  0.000000000000E+00  0.000000000000E+00
  0.000000000000E+00  0.000000000000E+00  0.000000000000E+00  0.000000000000E+00  0.000000000000E+00
  0.000000000000E+00  0.000000000000E+00  0.000000000000E+00  0.000000000000E+00  0.000000000000E+00
  0.000000000000E+00  0.000000000000E+00  0.000000000000E+00  0.000000000000E+00  0.000000000000E+00
  0.000000000000E+00  0.000000000000E+00  0.000000000000E+00
 ae wavefunction
  0.345681795319E-02  0.356322650214E-02  0.367289274169E-02  0.378591529829E-02  0.390239571274E-02
  0.402243852187E-02  0.414615134211E-02  0.427364495516E-02  0.440503339573E-02  0.454043404123E-02
  0.467996770368E-02  0.482375872359E-02  0.497193506608E-02  0.512462841907E-02  0.528197429359E-02
  0.544411212629E-02  0.561118538408E-02  0.578334167090E-02  0.596073283666E-02  0.614351508831E-02
  0.633184910302E-02  0.652590014349E-02  0.672583817532E-02  0.693183798642E-02  0.714407930849E-02
  0.736274694041E-02  0.758803087358E-02  0.782012641918E-02  0.805923433710E-02  0.830556096677E-02
  0.855931835948E-02  0.882072441234E-02  0.909000300366E-02  0.936738412960E-02  0.965310404208E-02
  0.994740538768E-02  0.102505373474E-01  0.105627557772E-01  0.108843233489E-01  0.112155096914E-01
  0.115565915319E-01  0.119078528371E-01  0.122695849534E-01  0.126420867471E-01  0.130256647420E-01
  0.134206332571E-01  0.138273145412E-01  0.142460389056E-01  0.146771448537E-01  0.151209792074E-01
  0.155778972291E-01  0.160482627404E-01  0.165324482341E-01  0.170308349810E-01  0.175438131306E-01
  0.180717818039E-01  0.186151491777E-01  0.191743325600E-01  0.197497584559E-01  0.203418626213E-01
  0.209510901047E-01  0.215778952755E-01  0.222227418378E-01  0.228861028277E-01  0.235684605925E-01
  0.242703067520E-01  0.249921421378E-01  0.257344767104E-01  0.264978294520E-01  0.272827282326E-01
  0.280897096475E-01  0.289193188240E-01  0.297721091948E-01  0.306486422359E-01  0.315494871654E-01
  0.324752206015E-01  0.334264261761E-01  0.344036941004E-01  0.354076206802E-01  0.364388077765E-01
  0.374978622076E-01  0.385853950890E-01  0.397020211074E-01  0.408483577234E-01  0.420250242987E-01
  0.432326411436E-01  0.444718284780E-01  0.457432053025E-01  0.470473881727E-01  0.483849898706E-01
  0.497566179684E-01  0.511628732762E-01  0.526043481686E-01  0.540816247819E-01  0.555952730755E-01
  0.571458487490E-01  0.587338910078E-01  0.603599201684E-01  0.620244350951E-01  0.637279104591E-01
  0.654707938115E-01  0.672535024594E-01  0.690764201371E-01  0.709398934614E-01  0.728442281609E-01
  0.747896850696E-01  0.767764758733E-01  0.788047585990E-01  0.808746328358E-01  0.829861346768E-01
  0.851392313707E-01  0.873338156727E-01  0.895696998836E-01  0.918466095663E-01  0.941641769299E-01
  0.965219338708E-01  0.989193046615E-01  0.101355598278E+00  0.103830000358E+00  0.106341564781E+00
  0.108889204865E+00  0.111471684178E+00  0.114087606947E+00  0.116735408086E+00  0.119413342813E+00
  0.122119475884E+00  0.124851670433E+00  0.127607576425E+00  0.130384618738E+00  0.133179984883E+00
  0.135990612373E+00  0.138813175774E+00  0.141644073451E+00  0.144479414044E+00  0.147315002706E+00
  0.150146327155E+00  0.152968543566E+00  0.155776462384E+00  0.158564534102E+00  0.161326835074E+00
  0.164057053463E+00  0.166748475384E+00  0.169393971371E+00  0.171985983252E+00  0.174516511582E+00
  0.176977103741E+00  0.179358842871E+00  0.181652337799E+00  0.183847714133E+00  0.185934606716E+00
  0.187902153657E+00  0.189738992156E+00  0.191433256387E+00  0.192972577666E+00  0.194344087229E+00
  0.195534421884E+00  0.196529732876E+00  0.197315698295E+00  0.197877539386E+00  0.198200041134E+00
  0.198267577521E+00  0.198064141860E+00  0.197573382624E+00  0.196778645227E+00  0.195663020181E+00
  0.194209398101E+00  0.192400532022E+00  0.190219107473E+00  0.187647820796E+00  0.184669466131E+00
  0.181267031530E+00  0.177423804597E+00  0.173123488051E+00  0.168350325558E+00  0.163089238132E+00
  0.157325971357E+00  0.151047253601E+00  0.144240965313E+00  0.136896319419E+00  0.129004052688E+00
  0.120556627856E+00  0.111548446116E+00  0.101976069448E+00  0.918384520728E-01  0.811371801159E-01
  0.698767183463E-01  0.580646626181E-01  0.457119963789E-01  0.328333493391E-01  0.194472561151E-01
  0.557641238528E-02 -0.875207416390E-02 -0.235064410554E-01 -0.386500395625E-01 -0.541411179218E-01
 -0.699326227766E-01 -0.859720226854E-01 -0.102201157928E+00 -0.118556121376E+00 -0.134967175842E+00
 -0.151358714008E+00 -0.167649267631E+00 -0.183751573150E+00 -0.199572700979E+00 -0.215014255650E+00
 -0.229972653547E+00 -0.244339484337E+00 -0.258001961392E+00 -0.270843465804E+00 -0.282744187857E+00
 -0.293581869200E+00 -0.303232648264E+00 -0.311572010524E+00 -0.318475844127E+00 -0.323821600082E+00
 -0.327489554703E+00 -0.329364170347E+00 -0.329335548685E+00 -0.327300968721E+00 -0.323166499647E+00
 -0.316848676260E+00 -0.308276222192E+00 -0.297391803607E+00 -0.284153793301E+00 -0.268538022463E+00
 -0.250539494633E+00 -0.230174033884E+00 -0.207479836870E+00 -0.182518896382E+00 -0.155378262398E+00
 -0.126171105415E+00 -0.950375462062E-01 -0.621452159587E-01 -0.276895114089E-01  0.810648873214E-02
  0.449924760906E-01  0.826917570219E-01  0.120902501883E+00  0.159299398418E+00  0.197535695892E+00
  0.235245622299E+00  0.272047168516E+00  0.307545262354E+00  0.341335390186E+00  0.373007734641E+00
  0.402151851581E+00  0.428361815674E+00  0.451241686307E+00  0.470411141541E+00  0.485511178874E+00
  0.496209825718E+00  0.502207809206E+00  0.503244115422E+00  0.499101345737E+00  0.489610767148E+00
  0.474656956141E+00  0.454181947163E+00  0.428188810335E+00  0.396744594898E+00  0.359982582956E+00
  0.318103803198E+00  0.271377757009E+00  0.220142311118E+00  0.164802712808E+00  0.105829686800E+00
  0.437565790513E-01 -0.208244769456E-01 -0.872673800608E-01 -0.154877855223E+00 -0.222920184306E+00
 -0.290624815226E+00 -0.357196777184E+00 -0.421824832125E+00 -0.483691307062E+00 -0.541982551214E+00
 -0.595899884069E+00 -0.644670663664E+00 -0.687558701970E+00 -0.723872950867E+00 -0.752973781517E+00
 -0.774277706097E+00 -0.787263216309E+00 -0.791480376437E+00 -0.786563940206E+00 -0.772246700856E+00
 -0.748369887857E+00 -0.714889812014E+00 -0.671881644207E+00 -0.619541271713E+00 -0.558185614509E+00
 -0.488251387381E+00 -0.410292204070E+00 -0.324974002897E+00 -0.233068902243E+00 -0.135447690375E+00
 -0.330711984969E-01  0.730191860229E-01  0.181711634081E+00  0.291834413554E+00  0.402166686076E+00
  0.511449431181E+00  0.618396400437E+00  0.721705038589E+00  0.820067344358E+00  0.912180679653E+00
  0.996758576668E+00  0.107254163663E+01  0.113830866197E+01  0.119288818960E+01  0.123517065849E+01
  0.126412143929E+01  0.127879498766E+01  0.127835037611E+01  0.126206845570E+01  0.122937088158E+01
  0.117984120750E+01  0.111324818797E+01  0.102957133035E+01  0.929028560571E+00  0.812105644959E+00
  0.679586715303E+00  0.532584937147E+00  0.372572024529E+00  0.201405000930E+00  0.000000000000E+00
  0.000000000000E+00  0.000000000000E+00  0.000000000000E+00  0.000000000000E+00  0.000000000000E+00
  0.000000000000E+00  0.000000000000E+00  0.000000000000E+00  0.000000000000E+00  0.000000000000E+00
  0.000000000000E+00  0.000000000000E+00  0.000000000000E+00  0.000000000000E+00  0.000000000000E+00
  0.000000000000E+00  0.000000000000E+00  0.000000000000E+00  0.000000000000E+00  0.000000000000E+00
  0.000000000000E+00  0.000000000000E+00  0.000000000000E+00  0.000000000000E+00  0.000000000000E+00
  0.000000000000E+00  0.000000000000E+00  0.000000000000E+00
 pseudo wavefunction
  0.103340131118E-08  0.110170128324E-08  0.117451536435E-08  0.125214190284E-08  0.133489896555E-08
  0.142312564116E-08  0.151718342951E-08  0.161745772284E-08  0.172435938492E-08  0.183832643444E-08
  0.195982583984E-08  0.208935543263E-08  0.222744594716E-08  0.237466319533E-08  0.253161038491E-08
  0.269893059110E-08  0.287730939151E-08  0.306747767520E-08  0.327021463749E-08  0.348635097255E-08
  0.371677227717E-08  0.396242267935E-08  0.422430870678E-08  0.450350341101E-08  0.480115076415E-08
  0.511847034620E-08  0.545676234212E-08  0.581741286929E-08  0.620189965689E-08  0.661179810082E-08
  0.704878771872E-08  0.751465903161E-08  0.801132090039E-08  0.854080834720E-08  0.910529089376E-08
  0.970708145073E-08  0.103486457947E-07  0.110326126713E-07  0.117617845667E-07  0.125391491898E-07
  0.133678917147E-07  0.142514078316E-07  0.151933176598E-07  0.161974805815E-07  0.172680110548E-07
  0.184092954725E-07  0.196260101348E-07  0.209231404103E-07  0.223060011629E-07  0.237802585288E-07
  0.253519531336E-07  0.270275248425E-07  0.288138391477E-07  0.307182152989E-07  0.327484562932E-07
  0.349128808477E-07  0.372203574842E-07  0.396803408678E-07  0.423029105463E-07  0.450988122504E-07
  0.480795019239E-07  0.512571926631E-07  0.546449047596E-07  0.582565190495E-07  0.621068337899E-07
  0.662116252931E-07  0.705877125697E-07  0.752530262432E-07  0.802266820198E-07  0.855290590138E-07
  0.911818832505E-07  0.972083166873E-07  0.103633052119E-06  0.110482414355E-06  0.117784468085E-06
  0.125569132875E-06  0.133868305756E-06  0.142715991929E-06  0.152148444097E-06  0.162204311010E-06
  0.172924795828E-06  0.184353824953E-06  0.196538228017E-06  0.209527929767E-06  0.223376154634E-06
  0.238139644821E-06  0.253878892807E-06  0.270658389219E-06  0.288546887084E-06  0.307617683556E-06
  0.327948920250E-06  0.349623903441E-06  0.372731445415E-06  0.397366228398E-06  0.423629192521E-06
  0.451627949442E-06  0.481477223305E-06  0.513299320844E-06  0.547224632560E-06  0.583392167028E-06
  0.621950120522E-06  0.663056484288E-06  0.706879691964E-06  0.753599309796E-06  0.803406772469E-06
  0.856506167596E-06  0.913115072045E-06  0.973465443567E-06  0.103780457136E-05  0.110639608946E-05
  0.117952105716E-05  0.125747911079E-05  0.134058969171E-05  0.142919335544E-05  0.152365316736E-05
  0.162435619069E-05  0.173171507277E-05  0.184616973637E-05  0.196818918266E-05  0.209827341352E-05
  0.223695548085E-05  0.238480367147E-05  0.254242383643E-05  0.271046187440E-05  0.288960637925E-05
  0.308059146270E-05  0.328419976372E-05  0.350126565685E-05  0.373267867282E-05  0.397938714533E-05
  0.424240209913E-05  0.452280139518E-05  0.482173415017E-05  0.514042544828E-05  0.548018136478E-05
  0.584239432193E-05  0.622854879936E-05  0.664022742226E-05  0.707911745259E-05  0.754701770978E-05
  0.804584594969E-05  0.857764673190E-05  0.914459980800E-05  0.974902906517E-05  0.103934120622E-04
  0.110803901967E-04  0.118127795466E-04  0.125935824288E-04  0.134259997243E-04  0.143134440204E-04
  0.152595536236E-04  0.162682075010E-04  0.173435412137E-04  0.184899639059E-04  0.197121764212E-04
  0.210151906213E-04  0.224043499868E-04  0.238853515853E-04  0.254642694989E-04  0.271475798079E-04
  0.289421872340E-04  0.308554535557E-04  0.328952279125E-04  0.350698791255E-04  0.373883301693E-04
  0.398600949387E-04  0.424953174652E-04  0.453048137473E-04  0.483001163702E-04  0.514935221033E-04
  0.548981426756E-04  0.585279589435E-04  0.623978786805E-04  0.665237982336E-04  0.709226683088E-04
  0.756125641653E-04  0.806127605188E-04  0.859438114737E-04  0.916276358291E-04  0.976876081237E-04
  0.104148655814E-03  0.111037363009E-03  0.118382081206E-03  0.126213047520E-03  0.134562510919E-03
  0.143464867021E-03  0.152956802049E-03  0.163077446583E-03  0.173868539802E-03  0.185374604941E-03
  0.197643136758E-03  0.210724801872E-03  0.224673652869E-03  0.239547357177E-03  0.255407441752E-03
  0.272319554730E-03  0.290353745260E-03  0.309584762852E-03  0.330092377660E-03  0.351961723242E-03
  0.375283663466E-03  0.400155185351E-03  0.426679819795E-03  0.454968092285E-03  0.485138005874E-03
  0.517315558891E-03  0.551635300054E-03  0.588240923903E-03  0.627285909690E-03  0.668934207179E-03
  0.713360973063E-03  0.760753362074E-03  0.811311377215E-03  0.865248783929E-03  0.922794093491E-03
  0.984191621371E-03  0.104970262688E-02  0.111960654096E-02  0.119420228972E-02  0.127380972196E-02
  0.135877114977E-02  0.144945301218E-02  0.154624767291E-02  0.164957536410E-02  0.175988628957E-02
  0.187766290204E-02  0.200342237048E-02  0.213771925561E-02  0.228114841292E-02  0.243434814526E-02
  0.259800362881E-02  0.277285063922E-02  0.295967960730E-02  0.315934003681E-02  0.337274532078E-02
  0.360087799608E-02  0.384479548108E-02  0.410563634536E-02  0.438462716653E-02  0.468309003461E-02
  0.500245077152E-02  0.534424794051E-02  0.571014272837E-02  0.610192979274E-02  0.652154917653E-02
  0.697109940288E-02  0.745285187615E-02  0.796926672822E-02  0.852301026392E-02  0.911697417622E-02
  0.975429671925E-02  0.104383860470E-01  0.111729459471E-01  0.119620042213E-01  0.128099439899E-01
  0.137215382249E-01  0.147019878429E-01  0.157569637213E-01  0.168926530330E-01  0.181158103271E-01
  0.194338138187E-01  0.208547273844E-01  0.223873687963E-01  0.240413847591E-01  0.258273333475E-01
  0.277567744681E-01  0.298423689895E-01  0.320979872023E-01  0.345388272663E-01  0.371815442944E-01
  0.400443906868E-01  0.431473682723E-01  0.465123927214E-01  0.501634705689E-01  0.541268889984E-01
  0.584314183046E-01  0.631085266297E-01  0.681926061638E-01  0.737212094857E-01  0.797352940752E-01
  0.862794722295E-01  0.934022626441E-01  0.101156338729E+00  0.109598767314E+00  0.118791229689E+00
  0.128800214931E+00  0.139697173104E+00  0.151558613212E+00  0.164466127614E+00  0.178506321093E+00
  0.193770618735E+00  0.210354922359E+00  0.228359080430E+00  0.247886131221E+00  0.269041273677E+00
  0.291930515042E+00  0.316658939191E+00  0.343328535070E+00  0.372035521181E+00  0.402867100247E+00
  0.435897578917E+00  0.471183791464E+00  0.508759775207E+00  0.548630660170E+00  0.590765757841E+00
  0.635090865706E+00  0.681479847247E+00  0.729745603373E+00  0.779630622330E+00  0.830797382567E+00
  0.882818987151E+00  0.935170528654E+00  0.987221817451E+00  0.103823224913E+01  0.108734872996E+01
  0.113360771068E+01  0.117594248046E+01  0.121319692158E+01  0.124414689165E+01  0.126753024781E+01
  0.128209890220E+01  0.128693702246E+01  0.128146172067E+01  0.126514335755E+01  0.000000000000E+00
  0.000000000000E+00  0.000000000000E+00  0.000000000000E+00  0.000000000000E+00  0.000000000000E+00
  0.000000000000E+00  0.000000000000E+00  0.000000000000E+00  0.000000000000E+00  0.000000000000E+00
  0.000000000000E+00  0.000000000000E+00  0.000000000000E+00  0.000000000000E+00  0.000000000000E+00
  0.000000000000E+00  0.000000000000E+00  0.000000000000E+00  0.000000000000E+00  0.000000000000E+00
  0.000000000000E+00  0.000000000000E+00  0.000000000000E+00  0.000000000000E+00  0.000000000000E+00
  0.000000000000E+00  0.000000000000E+00  0.000000000000E+00
 ae wavefunction
 -0.662209063480E-05 -0.700698370770E-05 -0.741313954730E-05 -0.784180010748E-05 -0.829427722730E-05
 -0.877195677851E-05 -0.927630305551E-05 -0.980886341940E-05 -0.103712732133E-04 -0.109652609658E-04
 -0.115926538998E-04 -0.122553837662E-04 -0.129554930201E-04 -0.136951413641E-04 -0.144766126783E-04
 -0.153023223623E-04 -0.161748251131E-04 -0.170968231682E-04 -0.180711750397E-04 -0.191009047706E-04
 -0.201892117465E-04 -0.213394810943E-04 -0.225552947076E-04 -0.238404429326E-04 -0.251989369584E-04
 -0.266350219556E-04 -0.281531910047E-04 -0.297581998659E-04 -0.314550826450E-04 -0.332491684010E-04
 -0.351460987635E-04 -0.371518466145E-04 -0.392727359040E-04 -0.415154626656E-04 -0.438871173089E-04
 -0.463952082638E-04 -0.490476870620E-04 -0.518529749417E-04 -0.548199910705E-04 -0.579581824828E-04
 -0.612775558412E-04 -0.647887111271E-04 -0.685028773842E-04 -0.724319506359E-04 -0.765885341127E-04
 -0.809859809258E-04 -0.856384393411E-04 -0.905609008072E-04 -0.957692509064E-04 -0.101280323406E-03
 -0.107111957598E-03 -0.113283059120E-03 -0.119813664482E-03 -0.126725009499E-03 -0.134039601888E-03
 -0.141781298260E-03 -0.149975385785E-03 -0.158648668791E-03 -0.167829560607E-03 -0.177548180953E-03
 -0.187836459202E-03 -0.198728243867E-03 -0.210259418671E-03 -0.222468025591E-03 -0.235394395283E-03
 -0.249081285304E-03 -0.263574026600E-03 -0.278920678728E-03 -0.295172194301E-03 -0.312382593203E-03
 -0.330609147115E-03 -0.349912574934E-03 -0.370357249705E-03 -0.392011417699E-03 -0.414947430318E-03
 -0.439241989532E-03 -0.464976407587E-03 -0.492236881766E-03 -0.521114785005E-03 -0.551706973234E-03
 -0.584116110296E-03 -0.618451011421E-03 -0.654827006165E-03 -0.693366321873E-03 -0.734198488678E-03
 -0.777460767150E-03 -0.823298599715E-03 -0.871866087016E-03 -0.923326490459E-03 -0.977852762165E-03
 -0.103562810365E-02 -0.109684655458E-02 -0.116171361296E-02 -0.123044688818E-02 -0.130327678838E-02
 -0.138044724357E-02 -0.146221646616E-02 -0.154885775016E-02 -0.164066031091E-02 -0.173793016675E-02
 -0.184099106415E-02 -0.195018544806E-02 -0.206587547887E-02 -0.218844409768E-02 -0.231829614119E-02
 -0.245585950802E-02 -0.260158637746E-02 -0.275595448242E-02 -0.291946843747E-02 -0.309266112337E-02
 -0.327609512901E-02 -0.347036425149E-02 -0.367609505524E-02 -0.389394849042E-02 -0.412462157089E-02
 -0.436884911156E-02 -0.462740552480E-02 -0.490110667500E-02 -0.519081179007E-02 -0.549742542815E-02
 -0.582189949729E-02 -0.616523532517E-02 -0.652848577536E-02 -0.691275740578E-02 -0.731921266425E-02
 -0.774907211502E-02 -0.820361668926E-02 -0.868418995124E-02 -0.919220037074E-02 -0.972912359099E-02
 -0.102965046797E-01 -0.108959603496E-01 -0.115291811323E-01 -0.121979334883E-01 -0.129040618339E-01
 -0.136494904620E-01 -0.144362253336E-01 -0.152663557129E-01 -0.161420556156E-01 -0.170655850388E-01
 -0.180392909360E-01 -0.190656078981E-01 -0.201470584974E-01 -0.212862532486E-01 -0.224858901347E-01
 -0.237487536443E-01 -0.250777132602E-01 -0.264757213348E-01 -0.279458102841E-01 -0.294910890257E-01
 -0.311147385824E-01 -0.328200067663E-01 -0.346102018534E-01 -0.364886851548E-01 -0.384588623821E-01
 -0.405241737025E-01 -0.426880823709E-01 -0.449540618240E-01 -0.473255811139E-01 -0.498060885567E-01
 -0.523989934665E-01 -0.551076458410E-01 -0.579353138648E-01 -0.608851590935E-01 -0.639602091797E-01
 -0.671633280069E-01 -0.704971830951E-01 -0.739642101492E-01 -0.775665746262E-01 -0.813061302053E-01
 -0.851843740565E-01 -0.892023988170E-01 -0.933608412010E-01 -0.976598271902E-01 -0.102098913776E+00
 -0.106677027251E+00 -0.111392398088E+00 -0.116242492473E+00 -0.121223940611E+00 -0.126332461966E+00
 -0.131562787669E+00 -0.136908580368E+00 -0.142362351881E+00 -0.147915379086E+00 -0.153557618571E+00
 -0.159277620642E+00 -0.165062443388E+00 -0.170897567602E+00 -0.176766813423E+00 -0.182652259658E+00
 -0.188534166797E+00 -0.194390904788E+00 -0.200198886678E+00 -0.205932509286E+00 -0.211564102151E+00
 -0.217063886193E+00 -0.222399943745E+00 -0.227538202022E+00 -0.232442432477E+00 -0.237074268952E+00
 -0.241393247814E+00 -0.245356873471E+00 -0.248920712590E+00 -0.252038520153E+00 -0.254662400102E+00
 -0.256743002834E+00 -0.258229761331E+00 -0.259071167261E+00 -0.259215088123E+00 -0.258609126350E+00
 -0.257201021192E+00 -0.254939094003E+00 -0.251772737238E+00 -0.247652946997E+00 -0.242532898395E+00
 -0.236368562352E+00 -0.229119361699E+00 -0.220748863687E+00 -0.211225505085E+00 -0.200523345095E+00
 -0.188622840244E+00 -0.175511634280E+00 -0.161185354895E+00 -0.145648407872E+00 -0.128914758009E+00
 -0.111008684944E+00 -0.919655008598E-01 -0.718322160012E-01 -0.506681370187E-01 -0.285453824534E-01
 -0.554929912865E-02  0.182212370767E-01  0.426536526369E-01  0.676216561181E-01  0.929853811837E-01
  0.118591705179E+00  0.144274750885E+00  0.169856571981E+00  0.195148014674E+00  0.219949742336E+00
  0.244053412388E+00  0.267243009395E+00  0.289296364616E+00  0.309986918525E+00  0.329085785658E+00
  0.346364139011E+00  0.361595857189E+00  0.374560326262E+00  0.385045299123E+00  0.392849764228E+00
  0.397786811942E+00  0.399686490180E+00  0.398398624428E+00  0.393795559570E+00  0.385774772948E+00
  0.374261309959E+00  0.359210001439E+00  0.340607430760E+00  0.318473625406E+00  0.292863451415E+00
  0.263867690317E+00  0.231613777436E+00  0.196266178752E+00  0.158026381585E+00  0.117132472933E+00
  0.738582795654E-01  0.285120467634E-01 -0.185653611328E-01 -0.670027452561E-01 -0.116401336253E+00
 -0.166338020499E+00 -0.216369005069E+00 -0.266033902583E+00 -0.314860231355E+00 -0.362368332911E+00
 -0.408076663853E+00 -0.451507257482E+00 -0.492190850210E+00 -0.529670896456E+00 -0.563505897614E+00
 -0.593270537149E+00 -0.618557563238E+00 -0.638982592717E+00 -0.654192047361E+00 -0.663872000609E+00
 -0.667755491673E+00 -0.665627531688E+00 -0.657328379142E+00 -0.642755808076E+00 -0.621866693611E+00
 -0.594677906645E+00 -0.561266399406E+00 -0.521768397423E+00 -0.476377703549E+00 -0.425343199431E+00
 -0.368965676579E+00 -0.307594154330E+00 -0.241621833298E+00 -0.171481831983E+00 -0.976428291093E-01
 -0.206047294806E-01  0.591055495744E-01  0.140938082664E+00  0.224323656152E+00  0.308677140072E+00
  0.393400462974E+00  0.477885157813E+00  0.561514467934E+00  0.643665018955E+00  0.723708094724E+00
  0.801010566566E+00  0.874935550108E+00  0.944842880451E+00  0.101008951597E+01  0.107003000807E+01
  0.112401721012E+01  0.117140343409E+01  0.121154230758E+01  0.124379159433E+01  0.126751724551E+01
  0.128209890220E+01  0.128693702246E+01  0.128146172067E+01  0.126514335755E+01  0.000000000000E+00
  0.000000000000E+00  0.000000000000E+00  0.000000000000E+00  0.000000000000E+00  0.000000000000E+00
  0.000000000000E+00  0.000000000000E+00  0.000000000000E+00  0.000000000000E+00  0.000000000000E+00
  0.000000000000E+00  0.000000000000E+00  0.000000000000E+00  0.000000000000E+00  0.000000000000E+00
  0.000000000000E+00  0.000000000000E+00  0.000000000000E+00  0.000000000000E+00  0.000000000000E+00
  0.000000000000E+00  0.000000000000E+00  0.000000000000E+00  0.000000000000E+00  0.000000000000E+00
  0.000000000000E+00  0.000000000000E+00  0.000000000000E+00
 pseudo wavefunction
  0.342572479568E-08  0.365213916572E-08  0.389351780470E-08  0.415084973706E-08  0.442518935425E-08
  0.471766073498E-08  0.502946225101E-08  0.536187147738E-08  0.571625042712E-08  0.609405113199E-08
  0.649682159201E-08  0.692621211822E-08  0.738398209470E-08  0.787200718746E-08  0.839228702976E-08
  0.894695341544E-08  0.953827903372E-08  0.101686867813E-07  0.108407596900E-07  0.115572515103E-07
  0.123210979947E-07  0.131354289269E-07  0.140035809452E-07  0.149291112144E-07  0.159158120011E-07
  0.169677262117E-07  0.180891639581E-07  0.192847202180E-07  0.205592936619E-07  0.219181067256E-07
  0.233667270081E-07  0.249110900843E-07  0.265575238260E-07  0.283127743287E-07  0.301840335542E-07
  0.321789687980E-07  0.343057541060E-07  0.365731037662E-07  0.389903080151E-07  0.415672711037E-07
  0.443145518783E-07  0.472434070455E-07  0.503658372945E-07  0.536946364694E-07  0.572434439903E-07
  0.610268007397E-07  0.650602086425E-07  0.693601941834E-07  0.739443761225E-07  0.788315376871E-07
  0.840417035333E-07  0.895962217960E-07  0.955178515601E-07  0.101830856115E-06  0.108561102368E-06
  0.115736166837E-06  0.123385448637E-06  0.131540289945E-06  0.140234104417E-06  0.149502514103E-06
  0.159383495400E-06  0.169917534661E-06  0.181147794081E-06  0.193120288553E-06  0.205884074209E-06
  0.219491449421E-06  0.233998169096E-06  0.249463673120E-06  0.265951329910E-06  0.283528696066E-06
  0.302267793172E-06  0.322245402902E-06  0.343543381628E-06  0.366248995822E-06  0.390455279618E-06
  0.416261416021E-06  0.443773143296E-06  0.473103188230E-06  0.504371728017E-06  0.537706882682E-06
  0.573245240044E-06  0.611132415375E-06  0.651523648057E-06  0.694584437663E-06  0.740491222086E-06
  0.789432100490E-06  0.841607604035E-06  0.897231517551E-06  0.956531755515E-06  0.101975129593E-05
  0.108714917590E-05  0.115900155309E-05  0.123560283722E-05  0.131726689643E-05  0.140432834338E-05
  0.149714390631E-05  0.159609389073E-05  0.170158373780E-05  0.181404568554E-05  0.193394054006E-05
  0.206175956366E-05  0.219802648786E-05  0.234329965941E-05  0.249817432818E-05  0.266328508630E-05
  0.283930846841E-05  0.302696572393E-05  0.322702577244E-05  0.344030835450E-05  0.366768739069E-05
  0.391009456268E-05  0.416852313100E-05  0.444403200524E-05  0.473775008315E-05  0.505088087671E-05
  0.538470744390E-05  0.574059764649E-05  0.612000975541E-05  0.652449842662E-05  0.695572107205E-05
  0.741544465166E-05  0.790555291451E-05  0.842805411852E-05  0.898508926058E-05  0.957894085071E-05
  0.102120422663E-04  0.108869877248E-04  0.116065429157E-04  0.123736563354E-04  0.131914713715E-04
  0.140633391862E-04  0.149928324514E-04  0.159837599918E-04  0.170401823969E-04  0.181664286641E-04
  0.193671139438E-04  0.206471584569E-04  0.220118076639E-04  0.234666537671E-04  0.250176586362E-04
  0.266711782487E-04  0.284339887478E-04  0.303133142235E-04  0.323168563317E-04  0.344528258721E-04
  0.367299764559E-04  0.391576404003E-04  0.417457669987E-04  0.445049633222E-04  0.474465377225E-04
  0.505825462122E-04  0.539258419165E-04  0.574901277971E-04  0.612900128668E-04  0.653410721256E-04
  0.696599104656E-04  0.742642308079E-04  0.791729067518E-04  0.844060600366E-04  0.899851431346E-04
  0.959330273175E-04  0.102274096558E-03  0.109034347657E-03  0.116241497004E-03  0.123925094425E-03
  0.132116644573E-03  0.140849736372E-03  0.150160181056E-03  0.160086159364E-03  0.170668378508E-03
  0.181950239565E-03  0.193978015990E-03  0.206801043988E-03  0.220471925547E-03  0.235046744960E-03
  0.250585299769E-03  0.267151347060E-03  0.284812866171E-03  0.303642338895E-03  0.323717048357E-03
  0.345119397824E-03  0.367937250788E-03  0.392264293752E-03  0.418200423255E-03  0.445852158773E-03
  0.475333083241E-03  0.506764313076E-03  0.540274999694E-03  0.576002864670E-03  0.614094770818E-03
  0.654707331660E-03  0.698007561890E-03  0.744173571649E-03  0.793395307611E-03  0.845875344117E-03
  0.901829727782E-03  0.961488879287E-03  0.102509855633E-02  0.109292088195E-02  0.116523544285E-02
  0.124234046250E-02  0.132455405442E-02  0.141221556116E-02  0.150568698508E-02  0.160535451745E-02
  0.171163017290E-02  0.182495353664E-02  0.194579363273E-02  0.207465092198E-02  0.221205943893E-02
  0.235858907810E-02  0.251484804034E-02  0.268148545118E-02  0.285919416381E-02  0.304871376050E-02
  0.325083376738E-02  0.346639709847E-02  0.369630374662E-02  0.394151473987E-02  0.420305638403E-02
  0.448202481318E-02  0.477959087246E-02  0.509700535891E-02  0.543560464883E-02  0.579681674234E-02
  0.618216775847E-02  0.659328891734E-02  0.703192404882E-02  0.749993767082E-02  0.799932368422E-02
  0.853221473561E-02  0.910089230352E-02  0.970779756920E-02  0.103555431383E-01  0.110469256856E-01
  0.117849396028E-01  0.125727917345E-01  0.134139172972E-01  0.143119970846E-01  0.152709760706E-01
  0.162950835320E-01  0.173888548260E-01  0.185571549650E-01  0.198052041495E-01  0.211386054281E-01
  0.225633746732E-01  0.240859730723E-01  0.257133423553E-01  0.274529429915E-01  0.293127956111E-01
  0.313015259226E-01  0.334284134169E-01  0.357034441663E-01  0.381373680474E-01  0.407417607283E-01
  0.435290907810E-01  0.465127922878E-01  0.497073433175E-01  0.531283506517E-01  0.567926411312E-01
  0.607183599784E-01  0.649250764193E-01  0.694338968816E-01  0.742675859790E-01  0.794506953908E-01
  0.850097006220E-01  0.909731454560E-01  0.973717936901E-01  0.104238787467E+00  0.111609811153E+00
  0.119523259278E+00  0.128020406487E+00  0.137145576801E+00  0.146946308629E+00  0.157473510992E+00
  0.168781605224E+00  0.180928644942E+00  0.193976405410E+00  0.207990431364E+00  0.223040030037E+00
  0.239198193335E+00  0.256541429979E+00  0.275149484756E+00  0.295104917948E+00  0.316492513350E+00
  0.339398478226E+00  0.363909392965E+00  0.390110862268E+00  0.418085813484E+00  0.447912381448E+00
  0.479661313120E+00  0.513392819850E+00  0.549152800819E+00  0.586968358722E+00  0.626842529040E+00
  0.668748148501E+00  0.712620797801E+00  0.758350770338E+00  0.805774044414E+00  0.854662273665E+00
  0.904711861957E+00  0.955532257672E+00  0.100663369115E+01  0.105741469104E+01  0.110714985300E+01
  0.115497849910E+01  0.119989505877E+01  0.124074221964E+01  0.127620813431E+01  0.130482921582E+01
  0.132500029528E+01  0.133499412463E+01  0.133299235444E+01  0.131713015515E+01  0.128555652806E+01
  0.123651200124E+01  0.116842475389E+01  0.108002518000E+01  0.970477417458E+00  0.839524375667E+00
  0.687647259708E+00  0.516332576942E+00  0.328031164974E+00  0.126006137244E+00  0.000000000000E+00
  0.000000000000E+00  0.000000000000E+00  0.000000000000E+00  0.000000000000E+00  0.000000000000E+00
  0.000000000000E+00  0.000000000000E+00  0.000000000000E+00  0.000000000000E+00  0.000000000000E+00
  0.000000000000E+00  0.000000000000E+00  0.000000000000E+00  0.000000000000E+00  0.000000000000E+00
  0.000000000000E+00  0.000000000000E+00  0.000000000000E+00  0.000000000000E+00  0.000000000000E+00
  0.000000000000E+00  0.000000000000E+00  0.000000000000E+00  0.000000000000E+00  0.000000000000E+00
  0.000000000000E+00  0.000000000000E+00  0.000000000000E+00
 ae wavefunction
 -0.913785929310E-05 -0.966897576092E-05 -0.102294328484E-04 -0.108209443364E-04 -0.114453204407E-04
 -0.121044735357E-04 -0.128004242113E-04 -0.135353076820E-04 -0.143113805692E-04 -0.151310280817E-04
 -0.159967716170E-04 -0.169112768119E-04 -0.178773620647E-04 -0.188980075641E-04 -0.199763648523E-04
 -0.211157669565E-04 -0.223197391212E-04 -0.235920101831E-04 -0.249365246237E-04 -0.263574553413E-04
 -0.278592171911E-04 -0.294464813343E-04 -0.311241904516E-04 -0.328975748691E-04 -0.347721696559E-04
 -0.367538327539E-04 -0.388487641973E-04 -0.410635264949E-04 -0.434050662461E-04 -0.458807370585E-04
 -0.484983238585E-04 -0.512660686702E-04 -0.541926979590E-04 -0.572874516317E-04 -0.605601137969E-04
 -0.640210453932E-04 -0.676812187986E-04 -0.715522545426E-04 -0.756464602513E-04 -0.799768719584E-04
 -0.845572979327E-04 -0.894023651678E-04 -0.945275687056E-04 -0.999493239579E-04 -0.105685022217E-03
 -0.111753089540E-03 -0.118173049227E-03 -0.124965588088E-03 -0.132152626756E-03 -0.139757394273E-03
 -0.147804507208E-03 -0.156320053593E-03 -0.165331681951E-03 -0.174868695740E-03 -0.184962153521E-03
 -0.195644975206E-03 -0.206952054738E-03 -0.218920379602E-03 -0.231589157549E-03 -0.244999950990E-03
 -0.259196819486E-03 -0.274226470829E-03 -0.290138421210E-03 -0.306985165005E-03 -0.324822354743E-03
 -0.343708991851E-03 -0.363707628786E-03 -0.384884583219E-03 -0.407310164965E-03 -0.431058916375E-03
 -0.456209866961E-03 -0.482846803060E-03 -0.511058553371E-03 -0.540939291267E-03 -0.572588854793E-03
 -0.606113085347E-03 -0.641624186046E-03 -0.679241100866E-03 -0.719089915663E-03 -0.761304282267E-03
 -0.806025866830E-03 -0.853404823786E-03 -0.903600296665E-03 -0.956780947219E-03 -0.101312551428E-02
 -0.107282340386E-02 -0.113607531206E-02 -0.120309388238E-02 -0.127410439915E-02 -0.134934551886E-02
 -0.142907004097E-02 -0.151354572041E-02 -0.160305612327E-02 -0.169790152797E-02 -0.179839987368E-02
 -0.190488775820E-02 -0.201772148724E-02 -0.213727817733E-02 -0.226395691443E-02 -0.239817997049E-02
 -0.254039408004E-02 -0.269107177903E-02 -0.285071280810E-02 -0.301984558238E-02 -0.319902872996E-02
 -0.338885270099E-02 -0.358994144950E-02 -0.380295418962E-02 -0.402858722808E-02 -0.426757587453E-02
 -0.452069643094E-02 -0.478876826150E-02 -0.507265594366E-02 -0.537327150109E-02 -0.569157671873E-02
 -0.602858553985E-02 -0.638536654442E-02 -0.676304550778E-02 -0.716280803772E-02 -0.758590228779E-02
 -0.803364174354E-02 -0.850740807775E-02 -0.900865406983E-02 -0.953890658327E-02 -0.100997695942E-01
 -0.106929272627E-01 -0.113201470367E-01 -0.119832827775E-01 -0.126842778941E-01 -0.134251684706E-01
 -0.142080863703E-01 -0.150352622973E-01 -0.159090287936E-01 -0.168318231483E-01 -0.178061901901E-01
 -0.188347849349E-01 -0.199203750537E-01 -0.210658431236E-01 -0.222741886221E-01 -0.235485296175E-01
 -0.248921041087E-01 -0.263082709569E-01 -0.278005103532E-01 -0.293724237549E-01 -0.310277332223E-01
 -0.327702800787E-01 -0.346040228127E-01 -0.365330341327E-01 -0.385614970802E-01 -0.406937000975E-01
 -0.429340309425E-01 -0.452869693325E-01 -0.477570781934E-01 -0.503489933832E-01 -0.530674117490E-01
 -0.559170773731E-01 -0.589027658528E-01 -0.620292664531E-01 -0.653013619660E-01 -0.687238061010E-01
 -0.723012982291E-01 -0.760384552970E-01 -0.799397807227E-01 -0.840096300853E-01 -0.882521734178E-01
 -0.926713539149E-01 -0.972708428696E-01 -0.102053990659E+00 -0.107023773609E+00 -0.112182736573E+00
 -0.117532931091E+00 -0.123075848985E+00 -0.128812351310E+00 -0.134742592567E+00 -0.140865940150E+00
 -0.147180889023E+00 -0.153684971667E+00 -0.160374663410E+00 -0.167245283277E+00 -0.174290890615E+00
 -0.181504177784E+00 -0.188876359312E+00 -0.196397058011E+00 -0.204054188649E+00 -0.211833839904E+00
 -0.219720155424E+00 -0.227695214970E+00 -0.235738916734E+00 -0.243828862042E+00 -0.251940243762E+00
 -0.260045739822E+00 -0.268115413324E+00 -0.276116620780E+00 -0.284013930085E+00 -0.291769049979E+00
 -0.299340772953E+00 -0.306684933943E+00 -0.313754387651E+00 -0.320499007912E+00 -0.326865713118E+00
 -0.332798522155E+00 -0.338238645525E+00 -0.343124616294E+00 -0.347392465207E+00 -0.350975943789E+00
 -0.353806798617E+00 -0.355815099221E+00 -0.356929621528E+00 -0.357078288351E+00 -0.356188668244E+00
 -0.354188533891E+00 -0.351006480922E+00 -0.346572607655E+00 -0.340819255548E+00 -0.333681809418E+00
 -0.325099555526E+00 -0.315016594656E+00 -0.303382806171E+00 -0.290154857819E+00 -0.275297254697E+00
 -0.258783419292E+00 -0.240596792951E+00 -0.220731947443E+00 -0.199195693568E+00 -0.176008171998E+00
 -0.151203909846E+00 -0.124832824821E+00 -0.969611573426E-01 -0.676723097049E-01 -0.370675703314E-01
 -0.526670040092E-02  0.275916403621E-01  0.613496520219E-01  0.958303596615E-01  0.130837806647E+00
  0.166157493478E+00  0.201557073277E+00  0.236787305288E+00  0.271583256641E+00  0.305665735063E+00
  0.338742938661E+00  0.370512329533E+00  0.400662774348E+00  0.428877031166E+00  0.454834665362E+00
  0.478215418688E+00  0.498702953030E+00  0.515988819885E+00  0.529776521979E+00  0.539785601444E+00
  0.545755738904E+00  0.547450852206E+00  0.544663160203E+00  0.537217152447E+00  0.524973394370E+00
  0.507832099977E+00  0.485736414636E+00  0.458675362111E+00  0.426686418778E+00  0.389857682269E+00
  0.348329602734E+00  0.302296243003E+00  0.252006030810E+00  0.197761962692E+00  0.139921216498E+00
  0.788941291011E-01  0.151424993006E-01 -0.508228158689E-01 -0.118445029725E+00 -0.187125280944E+00
 -0.256227200846E+00 -0.325082171415E+00 -0.392995259786E+00 -0.459251835136E+00 -0.523124881258E+00
 -0.583882950430E+00 -0.640798473310E+00 -0.693155722256E+00 -0.740257368563E+00 -0.781428898322E+00
 -0.816021666800E+00 -0.843417345022E+00 -0.863036712102E+00 -0.874352929186E+00 -0.876906112188E+00
 -0.870315844817E+00 -0.854290640985E+00 -0.828635191109E+00 -0.793256372101E+00 -0.748168426593E+00
 -0.693497263588E+00 -0.629483693216E+00 -0.556485462991E+00 -0.474978084658E+00 -0.385554540215E+00
 -0.288924004792E+00 -0.185909738053E+00 -0.774462657397E-01  0.354240555720E-01  0.151555051121E+00
  0.269701319793E+00  0.388523461859E+00  0.506594049939E+00  0.622404508618E+00  0.734373129969E+00
  0.840854521441E+00  0.940150858571E+00  0.103052539701E+01  0.111021876324E+01  0.117746863720E+01
  0.123053346875E+01  0.126772091353E+01  0.128742166889E+01  0.128814935055E+01  0.126858696756E+01
  0.122764040513E+01  0.116449907738E+01  0.107870355323E+01  0.970219419867E+00  0.839515951494E+00
  0.687647259708E+00  0.516332576942E+00  0.328031164974E+00  0.126006137244E+00  0.000000000000E+00
  0.000000000000E+00  0.000000000000E+00  0.000000000000E+00  0.000000000000E+00  0.000000000000E+00
  0.000000000000E+00  0.000000000000E+00  0.000000000000E+00  0.000000000000E+00  0.000000000000E+00
  0.000000000000E+00  0.000000000000E+00  0.000000000000E+00  0.000000000000E+00  0.000000000000E+00
  0.000000000000E+00  0.000000000000E+00  0.000000000000E+00  0.000000000000E+00  0.000000000000E+00
  0.000000000000E+00  0.000000000000E+00  0.000000000000E+00  0.000000000000E+00  0.000000000000E+00
  0.000000000000E+00  0.000000000000E+00  0.000000000000E+00
 End of Dataset
  PAW_PBE S 06Sep2000                    
   6.00000000000000     
 parameters from PSCTR are:
   VRHFIN =S : s2p4
   LEXCH  = PE
   EATOM  =   276.8230 eV,   20.3459 Ry

   TITEL  = PAW_PBE S 06Sep2000
   LULTRA =        F    use ultrasoft PP ?
   IUNSCR =        1    unscreen: 0-lin 1-nonlin 2-no
   RPACOR =    1.500    partial core radius
   POMASS =   32.066; ZVAL   =    6.000    mass and valenz
   RCORE  =    1.900    outmost cutoff radius
   RWIGS  =    2.200; RWIGS  =    1.164    wigner-seitz radius (au A)
   ENMAX  =  258.689; ENMIN  =  194.016 eV
   ICORE  =        2    local potential
   LCOR   =        T    correct aug charges
   LPAW   =        T    paw PP
   EAUG   =  335.092
   DEXC   =    0.000
   RMAX   =    1.942    core radius for proj-oper
   RAUG   =    1.300    factor for augmentation sphere
   RDEP   =    1.954    radius for radial grids
   RDEPT  =    1.744    core radius for aug-charge
 
   Atomic configuration
    6 entries
     n  l   j            E        occ.
     1  0  0.50     -2405.8406   2.0000
     2  0  0.50      -211.7007   2.0000
     2  1  1.50      -156.4958   6.0000
     3  0  0.50       -17.2562   2.0000
     3  1  0.50        -7.0085   4.0000
     3  2  1.50        -6.8029   0.0000
   Description
     l       E           TYP  RCUT    TYP  RCUT
     0    -17.2561641     23  1.900
     0    -15.8743224     23  1.900
     1     -7.0085400     23  1.900
     1     -2.7779785     23  1.900
     2     -6.8029130     23  1.900
   Error from kinetic energy argument (eV)
   NDATA  =      100
   STEP   =   20.000   1.050
  72.2      68.7      66.9      63.4      61.7      58.3      55.0      53.3
  50.2      47.1      45.6      42.7      39.9      37.2      34.7      32.3
  30.0      27.8      25.8      22.9      21.2      19.6      17.3      15.9
  14.6      12.8      11.3      10.3      9.01      7.85      6.83      5.92
  5.13      4.43      3.82      3.28      2.67      2.28      1.84      1.56
  1.25     0.993     0.784     0.615     0.478     0.369     0.283     0.200
 0.149     0.102     0.687E-01 0.494E-01 0.323E-01 0.209E-01 0.127E-01 0.884E-02
 0.671E-02 0.553E-02 0.514E-02 0.503E-02 0.493E-02 0.472E-02 0.435E-02 0.377E-02
 0.320E-02 0.254E-02 0.195E-02 0.149E-02 0.113E-02 0.946E-03 0.844E-03 0.805E-03
 0.781E-03 0.741E-03 0.665E-03 0.575E-03 0.467E-03 0.373E-03 0.300E-03 0.263E-03
 0.244E-03 0.234E-03 0.219E-03 0.193E-03 0.161E-03 0.131E-03 0.111E-03 0.987E-04
 0.931E-04 0.872E-04 0.769E-04 0.651E-04 0.532E-04 0.466E-04 0.433E-04 0.405E-04
 0.356E-04 0.300E-04 0.251E-04 0.228E-04
END of PSCTR-controll parameters
 local part
   98.2657514061040     
  0.25157640E+02  0.25164091E+02  0.25172622E+02  0.25186821E+02  0.25206654E+02
  0.25232074E+02  0.25263018E+02  0.25299401E+02  0.25341121E+02  0.25388051E+02
  0.25440043E+02  0.25496925E+02  0.25558502E+02  0.25624558E+02  0.25694855E+02
  0.25769136E+02  0.25847124E+02  0.25928527E+02  0.26013035E+02  0.26100324E+02
  0.26190051E+02  0.26281860E+02  0.26375378E+02  0.26470219E+02  0.26565978E+02
  0.26662235E+02  0.26758557E+02  0.26854496E+02  0.26949591E+02  0.27043367E+02
  0.27135341E+02  0.27225019E+02  0.27311902E+02  0.27395479E+02  0.27475240E+02
  0.27550666E+02  0.27621239E+02  0.27686438E+02  0.27745744E+02  0.27798640E+02
  0.27844611E+02  0.27883150E+02  0.27913758E+02  0.27935945E+02  0.27949234E+02
  0.27953160E+02  0.27947278E+02  0.27931156E+02  0.27904385E+02  0.27866578E+02
  0.27817369E+02  0.27756421E+02  0.27683420E+02  0.27598084E+02  0.27500159E+02
  0.27389424E+02  0.27265693E+02  0.27128812E+02  0.26978666E+02  0.26815176E+02
  0.26638300E+02  0.26448037E+02  0.26244425E+02  0.26027542E+02  0.25797505E+02
  0.25554473E+02  0.25298644E+02  0.25030259E+02  0.24749594E+02  0.24456969E+02
  0.24152740E+02  0.23837301E+02  0.23511082E+02  0.23174550E+02  0.22828205E+02
  0.22472578E+02  0.22108230E+02  0.21735753E+02  0.21355762E+02  0.20968899E+02
  0.20575824E+02  0.20177220E+02  0.19773783E+02  0.19366226E+02  0.18955273E+02
  0.18541655E+02  0.18126109E+02  0.17709377E+02  0.17292198E+02  0.16875310E+02
  0.16459445E+02  0.16045325E+02  0.15633662E+02  0.15225153E+02  0.14820479E+02
  0.14420299E+02  0.14025254E+02  0.13635957E+02  0.13252997E+02  0.12876932E+02
  0.12508292E+02  0.12147572E+02  0.11795234E+02  0.11451704E+02  0.11117372E+02
  0.10792588E+02  0.10477664E+02  0.10172873E+02  0.98784452E+01  0.95945735E+01
  0.93214083E+01  0.90590595E+01  0.88075971E+01  0.85670508E+01  0.83374114E+01
  0.81186311E+01  0.79106248E+01  0.77132711E+01  0.75264139E+01  0.73498637E+01
  0.71833995E+01  0.70267703E+01  0.68796973E+01  0.67418758E+01  0.66129774E+01
  0.64926519E+01  0.63805299E+01  0.62762251E+01  0.61793363E+01  0.60894501E+01
  0.60061434E+01  0.59289854E+01  0.58575404E+01  0.57913701E+01  0.57300356E+01
  0.56731002E+01  0.56201313E+01  0.55707022E+01  0.55243951E+01  0.54808018E+01
  0.54395266E+01  0.54001872E+01  0.53624167E+01  0.53258651E+01  0.52902004E+01
  0.52551098E+01  0.52203007E+01  0.51855020E+01  0.51504642E+01  0.51149604E+01
  0.50787866E+01  0.50417616E+01  0.50037278E+01  0.49645507E+01  0.49241186E+01
  0.48823425E+01  0.48391558E+01  0.47945134E+01  0.47483910E+01  0.47007846E+01
  0.46517094E+01  0.46011988E+01  0.45493031E+01  0.44960887E+01  0.44416366E+01
  0.43860412E+01  0.43294088E+01  0.42718562E+01  0.42135096E+01  0.41545028E+01
  0.40949759E+01  0.40350741E+01  0.39749459E+01  0.39147420E+01  0.38546139E+01
  0.37947124E+01  0.37351867E+01  0.36761827E+01  0.36178423E+01  0.35603021E+01
  0.35036925E+01  0.34481366E+01  0.33937495E+01  0.33406379E+01  0.32888986E+01
  0.32386191E+01  0.31898760E+01  0.31427356E+01  0.30972530E+01  0.30534722E+01
  0.30114260E+01  0.29711360E+01  0.29326127E+01  0.28958557E+01  0.28608539E+01
  0.28275859E+01  0.27960207E+01  0.27661178E+01  0.27378278E+01  0.27110933E+01
  0.26858494E+01  0.26620243E+01  0.26395401E+01  0.26183136E+01  0.25982572E+01
  0.25792793E+01  0.25612857E+01  0.25441798E+01  0.25278637E+01  0.25122393E+01
  0.24972083E+01  0.24826740E+01  0.24685409E+01  0.24547163E+01  0.24411105E+01
  0.24276375E+01  0.24142156E+01  0.24007678E+01  0.23872224E+01  0.23735133E+01
  0.23595804E+01  0.23453699E+01  0.23308344E+01  0.23159334E+01  0.23006329E+01
  0.22849061E+01  0.22687327E+01  0.22520994E+01  0.22349994E+01  0.22174325E+01
  0.21994048E+01  0.21809281E+01  0.21620201E+01  0.21427039E+01  0.21230074E+01
  0.21029630E+01  0.20826074E+01  0.20619808E+01  0.20411265E+01  0.20200906E+01
  0.19989213E+01  0.19776685E+01  0.19563829E+01  0.19351163E+01  0.19139203E+01
  0.18928462E+01  0.18719445E+01  0.18512644E+01  0.18308534E+01  0.18107568E+01
  0.17910176E+01  0.17716760E+01  0.17527689E+01  0.17343298E+01  0.17163889E+01
  0.16989723E+01  0.16821020E+01  0.16657963E+01  0.16500690E+01  0.16349297E+01
  0.16203840E+01  0.16064331E+01  0.15930743E+01  0.15803007E+01  0.15681017E+01
  0.15564630E+01  0.15453668E+01  0.15347920E+01  0.15247146E+01  0.15151078E+01
  0.15059423E+01  0.14971869E+01  0.14888082E+01  0.14807716E+01  0.14730413E+01
  0.14655806E+01  0.14583525E+01  0.14513195E+01  0.14444446E+01  0.14376913E+01
  0.14310236E+01  0.14244068E+01  0.14178075E+01  0.14111940E+01  0.14045364E+01
  0.13978068E+01  0.13909796E+01  0.13840318E+01  0.13769427E+01  0.13696945E+01
  0.13622721E+01  0.13546633E+01  0.13468588E+01  0.13388521E+01  0.13306396E+01
  0.13222205E+01  0.13135969E+01  0.13047733E+01  0.12957571E+01  0.12865577E+01
  0.12771873E+01  0.12676597E+01  0.12579909E+01  0.12481986E+01  0.12383020E+01
  0.12283216E+01  0.12182788E+01  0.12081960E+01  0.11980962E+01  0.11880027E+01
  0.11779389E+01  0.11679282E+01  0.11579935E+01  0.11481575E+01  0.11384419E+01
  0.11288675E+01  0.11194540E+01  0.11102199E+01  0.11011822E+01  0.10923563E+01
  0.10837559E+01  0.10753930E+01  0.10672777E+01  0.10594180E+01  0.10518202E+01
  0.10444883E+01  0.10374244E+01  0.10306288E+01  0.10240996E+01  0.10178330E+01
  0.10118235E+01  0.10060636E+01  0.10005445E+01  0.99525539E+00  0.99018432E+00
  0.98531794E+00  0.98064174E+00  0.97614021E+00  0.97179699E+00  0.96759505E+00
  0.96351683E+00  0.95954443E+00  0.95565977E+00  0.95184476E+00  0.94808145E+00
  0.94435221E+00  0.94063986E+00  0.93692785E+00  0.93320035E+00  0.92944243E+00
  0.92564017E+00  0.92178074E+00  0.91785253E+00  0.91384521E+00  0.90974982E+00
  0.90555879E+00  0.90126602E+00  0.89686687E+00  0.89235820E+00  0.88773834E+00
  0.88300711E+00  0.87816575E+00  0.87321693E+00  0.86816464E+00  0.86301419E+00
  0.85777206E+00  0.85244588E+00  0.84704429E+00  0.84157688E+00  0.83605401E+00
  0.83048675E+00  0.82488675E+00  0.81926609E+00  0.81363719E+00  0.80801265E+00
  0.80240517E+00  0.79682736E+00  0.79129170E+00  0.78581034E+00  0.78039506E+00
  0.77505710E+00  0.76980710E+00  0.76465498E+00  0.75960987E+00  0.75468002E+00
  0.74987275E+00  0.74519436E+00  0.74065013E+00  0.73624425E+00  0.73197983E+00
  0.72785883E+00  0.72388212E+00  0.72004945E+00  0.71635947E+00  0.71280977E+00
  0.70939690E+00  0.70611642E+00  0.70296297E+00  0.69993031E+00  0.69701141E+00
  0.69419852E+00  0.69148325E+00  0.68885667E+00  0.68630938E+00  0.68383163E+00
  0.68141341E+00  0.67904452E+00  0.67671469E+00  0.67441369E+00  0.67213138E+00
  0.66985784E+00  0.66758345E+00  0.66529896E+00  0.66299560E+00  0.66066511E+00
  0.65829988E+00  0.65589293E+00  0.65343803E+00  0.65092970E+00  0.64836329E+00
  0.64573496E+00  0.64304175E+00  0.64028155E+00  0.63745314E+00  0.63455616E+00
  0.63159113E+00  0.62855939E+00  0.62546313E+00  0.62230529E+00  0.61908957E+00
  0.61582036E+00  0.61250269E+00  0.60914218E+00  0.60574495E+00  0.60231756E+00
  0.59886697E+00  0.59540042E+00  0.59192540E+00  0.58844952E+00  0.58498050E+00
  0.58152604E+00  0.57809377E+00  0.57469118E+00  0.57132554E+00  0.56800382E+00
  0.56473266E+00  0.56151826E+00  0.55836639E+00  0.55528225E+00  0.55227052E+00
  0.54933527E+00  0.54647992E+00  0.54370725E+00  0.54101938E+00  0.53841771E+00
  0.53590297E+00  0.53347520E+00  0.53113376E+00  0.52887732E+00  0.52670391E+00
  0.52461095E+00  0.52259525E+00  0.52065306E+00  0.51878013E+00  0.51697175E+00
  0.51522278E+00  0.51352772E+00  0.51188078E+00  0.51027593E+00  0.50870692E+00
  0.50716740E+00  0.50565097E+00  0.50415118E+00  0.50266168E+00  0.50117620E+00
  0.49968867E+00  0.49819323E+00  0.49668430E+00  0.49515664E+00  0.49360538E+00
  0.49202606E+00  0.49041470E+00  0.48876776E+00  0.48708224E+00  0.48535566E+00
  0.48358608E+00  0.48177212E+00  0.47991295E+00  0.47800832E+00  0.47605853E+00
  0.47406439E+00  0.47202730E+00  0.46994911E+00  0.46783220E+00  0.46567937E+00
  0.46349387E+00  0.46127930E+00  0.45903963E+00  0.45677910E+00  0.45450222E+00
  0.45221370E+00  0.44991839E+00  0.44762128E+00  0.44532739E+00  0.44304175E+00
  0.44076937E+00  0.43851514E+00  0.43628386E+00  0.43408010E+00  0.43190823E+00
  0.42977236E+00  0.42767627E+00  0.42562345E+00  0.42361697E+00  0.42165955E+00
  0.41975348E+00  0.41790062E+00  0.41610239E+00  0.41435976E+00  0.41267326E+00
  0.41104292E+00  0.40946837E+00  0.40794876E+00  0.40648282E+00  0.40506886E+00
  0.40370480E+00  0.40238819E+00  0.40111623E+00  0.39988581E+00  0.39869355E+00
  0.39753581E+00  0.39640878E+00  0.39530844E+00  0.39423068E+00  0.39317128E+00
  0.39212598E+00  0.39109051E+00  0.39006065E+00  0.38903224E+00  0.38800123E+00
  0.38696373E+00  0.38591604E+00  0.38485467E+00  0.38377638E+00  0.38267823E+00
  0.38155755E+00  0.38041201E+00  0.37923964E+00  0.37803879E+00  0.37680821E+00
  0.37554700E+00  0.37425463E+00  0.37293099E+00  0.37157630E+00  0.37019117E+00
  0.36877657E+00  0.36733381E+00  0.36586451E+00  0.36437062E+00  0.36285438E+00
  0.36131826E+00  0.35976498E+00  0.35819745E+00  0.35661875E+00  0.35503210E+00
  0.35344084E+00  0.35184834E+00  0.35025806E+00  0.34867341E+00  0.34709781E+00
  0.34553461E+00  0.34398705E+00  0.34245825E+00  0.34095118E+00  0.33946862E+00
  0.33801314E+00  0.33658708E+00  0.33519252E+00  0.33383128E+00  0.33250489E+00
  0.33121459E+00  0.32996129E+00  0.32874563E+00  0.32756789E+00  0.32642808E+00
  0.32532586E+00  0.32426062E+00  0.32323141E+00  0.32223704E+00  0.32127602E+00
  0.32034661E+00  0.31944684E+00  0.31857453E+00  0.31772730E+00  0.31690262E+00
  0.31609782E+00  0.31531011E+00  0.31453663E+00  0.31377445E+00  0.31302062E+00
  0.31227220E+00  0.31152626E+00  0.31077994E+00  0.31003046E+00  0.30927516E+00
  0.30851150E+00  0.30773711E+00  0.30694979E+00  0.30614755E+00  0.30532862E+00
  0.30449143E+00  0.30363470E+00  0.30275735E+00  0.30185859E+00  0.30093789E+00
  0.29999498E+00  0.29902985E+00  0.29804277E+00  0.29703425E+00  0.29600507E+00
  0.29495621E+00  0.29388893E+00  0.29280466E+00  0.29170506E+00  0.29059193E+00
  0.28946725E+00  0.28833313E+00  0.28719180E+00  0.28604556E+00  0.28489679E+00
  0.28374792E+00  0.28260139E+00  0.28145963E+00  0.28032505E+00  0.27920001E+00
  0.27808678E+00  0.27698754E+00  0.27590437E+00  0.27483918E+00  0.27379373E+00
  0.27276964E+00  0.27176831E+00  0.27079095E+00  0.26983857E+00  0.26891197E+00
  0.26801170E+00  0.26713813E+00  0.26629136E+00  0.26547130E+00  0.26467762E+00
  0.26390977E+00  0.26316699E+00  0.26244833E+00  0.26175264E+00  0.26107859E+00
  0.26042469E+00  0.25978930E+00  0.25917065E+00  0.25856688E+00  0.25797600E+00
  0.25739598E+00  0.25682473E+00  0.25626012E+00  0.25570002E+00  0.25514231E+00
  0.25458488E+00  0.25402570E+00  0.25346278E+00  0.25289424E+00  0.25231830E+00
  0.25173330E+00  0.25113772E+00  0.25053020E+00  0.24990952E+00  0.24927466E+00
  0.24862475E+00  0.24795914E+00  0.24727735E+00  0.24657909E+00  0.24586429E+00
  0.24513304E+00  0.24438566E+00  0.24362261E+00  0.24284457E+00  0.24205239E+00
  0.24124705E+00  0.24042971E+00  0.23960167E+00  0.23876433E+00  0.23791921E+00
  0.23706793E+00  0.23621217E+00  0.23535367E+00  0.23449423E+00  0.23363564E+00
  0.23277972E+00  0.23192828E+00  0.23108307E+00  0.23024583E+00  0.22941820E+00
  0.22860177E+00  0.22779802E+00  0.22700830E+00  0.22623388E+00  0.22547587E+00
  0.22473523E+00  0.22401278E+00  0.22330918E+00  0.22262493E+00  0.22196035E+00
  0.22131561E+00  0.22069069E+00  0.22008543E+00  0.21949948E+00  0.21893232E+00
  0.21838332E+00  0.21785165E+00  0.21733637E+00  0.21683642E+00  0.21635059E+00
  0.21587760E+00  0.21541606E+00  0.21496451E+00  0.21452144E+00  0.21408527E+00
  0.21365442E+00  0.21322726E+00  0.21280219E+00  0.21237761E+00  0.21195196E+00
  0.21152372E+00  0.21109143E+00  0.21065370E+00  0.21020925E+00  0.20975688E+00
  0.20929550E+00  0.20882415E+00  0.20834200E+00  0.20784833E+00  0.20734261E+00
  0.20682440E+00  0.20629344E+00  0.20574961E+00  0.20519295E+00  0.20462362E+00
  0.20404195E+00  0.20344839E+00  0.20284356E+00  0.20222816E+00  0.20160304E+00
  0.20096916E+00  0.20032758E+00  0.19967942E+00  0.19902591E+00  0.19836834E+00
  0.19770802E+00  0.19704633E+00  0.19638465E+00  0.19572439E+00  0.19506694E+00
  0.19441368E+00  0.19376596E+00  0.19312508E+00  0.19249228E+00  0.19186874E+00
  0.19125556E+00  0.19065374E+00  0.19006419E+00  0.18948770E+00  0.18892495E+00
  0.18837650E+00  0.18784279E+00  0.18732413E+00  0.18682069E+00  0.18633251E+00
  0.18585951E+00  0.18540148E+00  0.18495806E+00  0.18452880E+00  0.18411311E+00
  0.18371029E+00  0.18331956E+00  0.18294001E+00  0.18257067E+00  0.18221048E+00
  0.18185834E+00  0.18151306E+00  0.18117344E+00  0.18083824E+00  0.18050621E+00
  0.18017608E+00  0.17984661E+00  0.17951655E+00  0.17918470E+00  0.17884991E+00
  0.17851106E+00  0.17816712E+00  0.17781712E+00  0.17746016E+00  0.17709547E+00
  0.17672235E+00  0.17634020E+00  0.17594854E+00  0.17554701E+00  0.17513535E+00
  0.17471343E+00  0.17428121E+00  0.17383881E+00  0.17338642E+00  0.17292437E+00
  0.17245310E+00  0.17197313E+00  0.17148509E+00  0.17098972E+00  0.17048781E+00
  0.16998024E+00  0.16946794E+00  0.16895192E+00  0.16843322E+00  0.16791290E+00
  0.16739207E+00  0.16687182E+00  0.16635327E+00  0.16583752E+00  0.16532564E+00
  0.16481869E+00  0.16431766E+00  0.16382352E+00  0.16333717E+00  0.16285942E+00
  0.16239103E+00  0.16193266E+00  0.16148491E+00  0.16104824E+00  0.16062304E+00
  0.16020960E+00  0.15980810E+00  0.15941861E+00  0.15904111E+00  0.15867547E+00
  0.15832144E+00  0.15797870E+00  0.15764683E+00  0.15732529E+00  0.15701350E+00
  0.15671076E+00  0.15641631E+00  0.15612935E+00  0.15584901E+00  0.15557435E+00
  0.15530444E+00  0.15503829E+00  0.15477489E+00  0.15451325E+00  0.15425237E+00
  0.15399124E+00  0.15372890E+00  0.15346440E+00  0.15319685E+00  0.15292540E+00
  0.15264924E+00  0.15236764E+00  0.15207994E+00  0.15178557E+00  0.15148400E+00
  0.15117483E+00  0.15085773E+00  0.15053246E+00  0.15019887E+00  0.14985693E+00
  0.14950667E+00  0.14914823E+00  0.14878185E+00  0.14840782E+00  0.14802657E+00
  0.14763856E+00  0.14724436E+00  0.14684459E+00  0.14643994E+00  0.14603115E+00
  0.14561900E+00  0.14520433E+00  0.14478799E+00  0.14437086E+00  0.14395383E+00
  0.14353780E+00  0.14312365E+00  0.14271227E+00  0.14230452E+00  0.14190121E+00
  0.14150315E+00  0.14111106E+00  0.14072564E+00  0.14034751E+00  0.13997725E+00
  0.13961535E+00  0.13926222E+00  0.13891819E+00  0.13858354E+00  0.13825844E+00
  0.13794297E+00  0.13763714E+00  0.13734087E+00  0.13705400E+00  0.13677628E+00
  0.13650740E+00  0.13624696E+00  0.13599447E+00  0.13574943E+00  0.13551121E+00
  0.13527919E+00  0.13505266E+00  0.13483089E+00  0.13461310E+00  0.13439851E+00
  0.13418631E+00  0.13397568E+00  0.13376579E+00  0.13355584E+00  0.13334504E+00
  0.13313259E+00  0.13291776E+00  0.13269984E+00  0.13247816E+00  0.13225211E+00
  0.13202112E+00  0.13178471E+00  0.13154244E+00  0.13129395E+00  0.13103895E+00
  0.13077722E+00  0.13050862E+00  0.13023309E+00  0.12995066E+00  0.12966140E+00
  0.12936548E+00  0.12906315E+00  0.12875471E+00  0.12844055E+00  0.12812111E+00
  0.12779688E+00  0.12746841E+00  0.12713631E+00  0.12680121E+00  0.12646379E+00
  0.12612476E+00  0.12578482E+00  0.12544472E+00  0.12510519E+00  0.12476698E+00
  0.12443081E+00  0.12409740E+00  0.12376744E+00  0.12344158E+00  0.12312046E+00
  0.12280466E+00  0.12249471E+00  0.12219111E+00  0.12189426E+00  0.12160455E+00
  0.12132226E+00  0.12104763E+00  0.12078083E+00  0.12052195E+00  0.12027102E+00
  0.12002799E+00  0.11979273E+00  0.11956508E+00  0.11934477E+00  0.11913150E+00
  0.11892489E+00  0.11872451E+00  0.11852988E+00  0.11834047E+00  0.11815570E+00
  0.11797499E+00  0.11779768E+00  0.11762313E+00  0.11745066E+00  0.11727959E+00
  0.11710923E+00  0.11693891E+00  0.11676795E+00  0.11659570E+00  0.11642152E+00
  0.11624482E+00  0.11606502E+00  0.11588161E+00  0.11569409E+00  0.11550204E+00
  0.11530508E+00  0.11510289E+00  0.11489521E+00  0.11468183E+00  0.11446264E+00
  0.11423756E+00  0.11400657E+00  0.11376975E+00  0.11352722E+00  0.11327915E+00
 gradient corrections used for XC
           5
 core charge-density (partial)
  0.46517955E+00  0.46502850E+00  0.46457564E+00  0.46382177E+00  0.46276827E+00
  0.46141705E+00  0.45977054E+00  0.45783173E+00  0.45560409E+00  0.45309164E+00
  0.45029887E+00  0.44723076E+00  0.44389278E+00  0.44029082E+00  0.43643124E+00
  0.43232080E+00  0.42796668E+00  0.42337642E+00  0.41855793E+00  0.41351947E+00
  0.40826960E+00  0.40281717E+00  0.39717130E+00  0.39134138E+00  0.38533698E+00
  0.37916788E+00  0.37284405E+00  0.36637556E+00  0.35977263E+00  0.35304556E+00
  0.34620473E+00  0.33926054E+00  0.33222342E+00  0.32510378E+00  0.31791202E+00
  0.31065847E+00  0.30335338E+00  0.29600689E+00  0.28862905E+00  0.28122972E+00
  0.27381864E+00  0.26640534E+00  0.25899917E+00  0.25160923E+00  0.24424442E+00
  0.23691337E+00  0.22962446E+00  0.22238577E+00  0.21520512E+00  0.20809001E+00
  0.20104764E+00  0.19408488E+00  0.18720829E+00  0.18042409E+00  0.17373816E+00
  0.16715603E+00  0.16068291E+00  0.15432364E+00  0.14808272E+00  0.14196430E+00
  0.13597217E+00  0.13010979E+00  0.12438028E+00  0.11878639E+00  0.11333057E+00
  0.10801491E+00  0.10284120E+00  0.97810886E-01  0.92925120E-01  0.88184744E-01
  0.83590304E-01  0.79142061E-01  0.74839999E-01  0.70683834E-01  0.66673024E-01
  0.62806780E-01  0.59084080E-01  0.55503673E-01  0.52064097E-01  0.48763687E-01
  0.45600588E-01  0.42572766E-01  0.39678018E-01  0.36913987E-01  0.34278171E-01
  0.31767938E-01  0.29380532E-01  0.27113089E-01  0.24962648E-01  0.22926158E-01
  0.21000494E-01  0.19182465E-01  0.17468822E-01  0.15856275E-01  0.14341494E-01
  0.12921126E-01  0.11591798E-01  0.10350133E-01  0.91927487E-02  0.81162751E-02
  0.71173561E-02  0.61926591E-02  0.53388815E-02  0.45527570E-02  0.38310619E-02
  0.31706209E-02  0.25683122E-02  0.20210724E-02  0.15259012E-02  0.10798656E-02
  0.68010315E-03  0.32382605E-03  0.83235904E-05 -0.26903495E-03 -0.51079806E-03
 -0.71943009E-03 -0.89730957E-03 -0.10467280E-02 -0.11698888E-02 -0.12689066E-02
 -0.13458071E-02 -0.14025266E-02 -0.14409125E-02 -0.14627232E-02 -0.14696294E-02
 -0.14632144E-02 -0.14449754E-02 -0.14163248E-02 -0.13785916E-02 -0.13330227E-02
 -0.12807852E-02 -0.12229680E-02 -0.11605838E-02 -0.10945713E-02 -0.10257975E-02
 -0.95505984E-03 -0.88308896E-03 -0.81055084E-03 -0.73804947E-03 -0.66612942E-03
 -0.59527843E-03 -0.52593006E-03 -0.45846628E-03 -0.39322015E-03 -0.33047845E-03
 -0.27048430E-03 -0.21343975E-03 -0.15950836E-03 -0.10881772E-03 -0.61461966E-04
 -0.17504176E-04  0.23021206E-04  0.60106059E-04  0.93766327E-04  0.12403982E-03
  0.15098410E-03  0.17467442E-03  0.19520180E-03  0.21267106E-03  0.22719912E-03
  0.23891319E-03  0.24794918E-03  0.25445013E-03  0.25856479E-03  0.26044617E-03
  0.26025031E-03  0.25813507E-03  0.25425898E-03  0.24878021E-03  0.24185565E-03
  0.23364000E-03  0.22428500E-03  0.21393869E-03  0.20274481E-03  0.19084216E-03
  0.17836418E-03  0.16543849E-03  0.15218648E-03  0.13872309E-03  0.12515649E-03
  0.11158794E-03  0.98111604E-04  0.84814537E-04  0.71776586E-04  0.59070418E-04
  0.46761570E-04  0.34908528E-04  0.23562848E-04  0.12769311E-04  0.25660971E-05
 -0.70150012E-05 -0.15948354E-04 -0.24214241E-04 -0.31798586E-04 -0.38692673E-04
 -0.44892850E-04 -0.50400226E-04 -0.55220352E-04 -0.59362908E-04 -0.62841376E-04
 -0.65672718E-04 -0.67877050E-04 -0.69477319E-04 -0.70498989E-04 -0.70969723E-04
 -0.70919078E-04 -0.70378205E-04 -0.69379561E-04 -0.67956627E-04 -0.66143641E-04
 -0.63975339E-04 -0.61486712E-04 -0.58712773E-04 -0.55688341E-04 -0.52447833E-04
 -0.49025081E-04 -0.45453153E-04 -0.41764192E-04 -0.37989271E-04 -0.34158267E-04
 -0.30299737E-04 -0.26440821E-04 -0.22607153E-04 -0.18822788E-04 -0.15110140E-04
 -0.11489937E-04 -0.79811833E-05 -0.46011400E-05 -0.13653115E-05  0.17125530E-05
  0.46204500E-05  0.73481012E-05  0.98869241E-05  0.12229995E-04  0.14372003E-04
  0.16309196E-04  0.18039325E-04  0.19561577E-04  0.20876504E-04  0.21985951E-04
  0.22892975E-04  0.23601768E-04  0.24117568E-04  0.24446578E-04  0.24595874E-04
  0.24573322E-04  0.24387486E-04  0.24047543E-04  0.23563196E-04  0.22944584E-04
  0.22202204E-04  0.21346824E-04  0.20389407E-04  0.19341032E-04  0.18212819E-04
  0.17015864E-04  0.15761165E-04  0.14459565E-04  0.13121689E-04  0.11757891E-04
  0.10378202E-04  0.89922860E-05  0.76093952E-05  0.62383340E-05  0.48874255E-05
  0.35644829E-05  0.22767849E-05  0.10310563E-05 -0.16654870E-06 -0.13104572E-05
 -0.23956861E-05 -0.34178454E-05 -0.43731382E-05 -0.52583579E-05 -0.60708806E-05
 -0.68086557E-05 -0.74701927E-05 -0.80545454E-05 -0.85612940E-05 -0.89905239E-05
 -0.93428039E-05 -0.96191605E-05 -0.98210528E-05 -0.99503439E-05 -0.10009273E-04
 -0.10000423E-04 -0.99266957E-05 -0.97912724E-05 -0.95975891E-05 -0.93493015E-05
 -0.90502544E-05 -0.87044498E-05 -0.83160157E-05 -0.78891762E-05 -0.74282209E-05
 -0.69374766E-05 -0.64212787E-05 -0.58839448E-05 -0.53297488E-05 -0.47628965E-05
 -0.41875031E-05 -0.36075709E-05 -0.30269702E-05 -0.24494205E-05 -0.18784742E-05
 -0.13175011E-05 -0.76967546E-06 -0.23796438E-06  0.27488230E-06  0.76634008E-06
  0.12341164E-05  0.16761554E-05  0.20906416E-05  0.24760010E-05  0.28309019E-05
  0.31542532E-05  0.34452022E-05  0.37031301E-05  0.39276473E-05  0.41185867E-05
  0.42759965E-05  0.44001314E-05  0.44914434E-05  0.45505718E-05  0.45783319E-05
  0.45757034E-05  0.45438188E-05  0.44839502E-05  0.43974966E-05  0.42859709E-05
  0.41509859E-05  0.39942413E-05  0.38175099E-05  0.36226244E-05  0.34114634E-05
  0.31859390E-05  0.29479836E-05  0.26995373E-05  0.24425360E-05  0.21788995E-05
  0.19105207E-05  0.16392548E-05  0.13669093E-05  0.10952349E-05  0.82591641E-06
  0.56056541E-06  0.30071251E-06  0.47801056E-07 -0.19681862E-06 -0.43189424E-06
 -0.65627574E-06 -0.86891880E-06 -0.10688875E-05 -0.12553563E-05 -0.14276114E-05
 -0.15850510E-05 -0.17271855E-05 -0.18536362E-05 -0.19641343E-05 -0.20585186E-05
 -0.21367329E-05 -0.21988227E-05 -0.22449317E-05 -0.22752976E-05 -0.22902473E-05
 -0.22901921E-05 -0.22756227E-05 -0.22471029E-05 -0.22052644E-05 -0.21508005E-05
 -0.20844597E-05 -0.20070395E-05 -0.19193799E-05 -0.18223572E-05 -0.17168768E-05
 -0.16038674E-05 -0.14842745E-05 -0.13590538E-05 -0.12291652E-05 -0.10955669E-05
 -0.95920973E-06 -0.82103131E-06 -0.68195096E-06 -0.54286465E-06 -0.40464027E-06
 -0.26811324E-06 -0.13408247E-06 -0.33066225E-08  0.12349924E-06  0.24566664E-06
  0.36257631E-06  0.47366042E-06  0.57840448E-06  0.67634875E-06  0.76708943E-06
  0.85027936E-06  0.92562840E-06  0.99290347E-06  0.10519282E-05  0.11025824E-05
  0.11448008E-05  0.11785721E-05  0.12039374E-05  0.12209881E-05  0.12298640E-05
  0.12307513E-05  0.12238794E-05  0.12095189E-05  0.11879783E-05  0.11596014E-05
  0.11247636E-05  0.10838692E-05  0.10373480E-05  0.98565162E-06  0.92925058E-06
  0.86863055E-06  0.80428908E-06  0.73673226E-06  0.66647135E-06  0.59401953E-06
  0.51988875E-06  0.44458666E-06  0.36861361E-06  0.29245985E-06  0.21660283E-06
  0.14150469E-06  0.67609829E-07 -0.46572225E-08 -0.74893867E-07 -0.14272125E-06
 -0.20778590E-06 -0.26976114E-06 -0.32834838E-06 -0.38327806E-06 -0.43431056E-06
 -0.48123677E-06 -0.52387855E-06 -0.56208893E-06 -0.59575214E-06 -0.62478350E-06
 -0.64912900E-06 -0.66876487E-06 -0.68369686E-06 -0.69395938E-06 -0.69961457E-06
 -0.70075110E-06 -0.69748297E-06 -0.68994810E-06 -0.67830688E-06 -0.66274056E-06
 -0.64344959E-06 -0.62065193E-06 -0.59458121E-06 -0.56548492E-06 -0.53362255E-06
 -0.49926368E-06 -0.46268606E-06 -0.42417374E-06 -0.38401518E-06 -0.34250137E-06
 -0.29992397E-06 -0.25657359E-06 -0.21273801E-06 -0.16870049E-06 -0.12473821E-06
 -0.81120740E-07 -0.38108570E-07  0.40482071E-08  0.45111154E-07  0.84854635E-07
  0.12306686E-06  0.15955080E-06  0.19412504E-06  0.22662444E-06  0.25690074E-06
  0.28482303E-06  0.31027814E-06  0.33317080E-06  0.35342382E-06  0.37097813E-06
  0.38579260E-06  0.39784392E-06  0.40712623E-06  0.41365080E-06  0.41744543E-06
  0.41855398E-06  0.41703562E-06  0.41296414E-06  0.40642712E-06  0.39752507E-06
  0.38637050E-06  0.37308693E-06  0.35780790E-06  0.34067587E-06  0.32184120E-06
  0.30146099E-06  0.27969799E-06  0.25671946E-06  0.23269608E-06  0.20780080E-06
  0.18220773E-06  0.15609110E-06  0.12962416E-06  0.10297816E-06  0.76321377E-07
  0.49818150E-07  0.23627982E-07 -0.20953147E-08 -0.27204412E-07 -0.51559208E-07
 -0.75027508E-07 -0.97485635E-07 -0.11881898E-06 -0.13892249E-06 -0.15770108E-06
 -0.17506996E-06 -0.19095492E-06 -0.20529257E-06 -0.21803038E-06 -0.22912686E-06
 -0.23855147E-06 -0.24628458E-06 -0.25231735E-06 -0.25665153E-06 -0.25929918E-06
 -0.26028241E-06 -0.25963295E-06 -0.25739181E-06 -0.25360876E-06 -0.24834187E-06
 -0.24165694E-06 -0.23362695E-06 -0.22433143E-06 -0.21385586E-06 -0.20229099E-06
 -0.18973219E-06 -0.17627875E-06 -0.16203322E-06 -0.14710067E-06 -0.13158806E-06
 -0.11560347E-06 -0.99255497E-07 -0.82652541E-07 -0.65902160E-07 -0.49110443E-07
 -0.32381394E-07 -0.15816351E-07  0.48657199E-09  0.16433006E-07  0.31932820E-07
  0.46900571E-07  0.61255925E-07  0.74924024E-07  0.87835830E-07  0.99928410E-07
  0.11114519E-06  0.12143615E-06  0.13075800E-06  0.13907430E-06  0.14635549E-06
  0.15257900E-06  0.15772917E-06  0.16179720E-06  0.16478111E-06  0.16668555E-06
  0.16752166E-06  0.16730686E-06  0.16606461E-06  0.16382412E-06  0.16062009E-06
  0.15649237E-06  0.15148558E-06  0.14564877E-06  0.13903504E-06  0.13170109E-06
  0.12370686E-06  0.11511503E-06  0.10599065E-06  0.96400641E-07  0.86413401E-07
  0.76098318E-07  0.65525351E-07  0.54764588E-07  0.43885821E-07  0.32958127E-07
  0.22049467E-07  0.11226295E-07  0.55318398E-09 -0.99075204E-08 -0.20096038E-07
 -0.29955461E-07 -0.39432042E-07 -0.48475453E-07 -0.57039026E-07 -0.65079954E-07
 -0.72559479E-07 -0.79443042E-07 -0.85700410E-07 -0.91305769E-07 -0.96237793E-07
 -0.10047969E-06 -0.10401919E-06 -0.10684856E-06 -0.10896455E-06 -0.11036831E-06
 -0.11106531E-06 -0.11106520E-06 -0.11038172E-06 -0.10903246E-06 -0.10703875E-06
 -0.10442542E-06 -0.10122056E-06 -0.97455353E-07 -0.93163750E-07 -0.88382263E-07
 -0.83149670E-07 -0.77506741E-07 -0.71495955E-07 -0.65161203E-07 -0.58547502E-07
 -0.51700695E-07 -0.44667161E-07 -0.37493520E-07 -0.30226350E-07 -0.22911903E-07
 -0.15595831E-07 -0.83229227E-08 -0.11368477E-08  0.59200869E-08  0.12807166E-07
  0.19485483E-07  0.25918142E-07  0.32070441E-07  0.37910043E-07  0.43407124E-07
  0.48534509E-07  0.53267785E-07  0.57585397E-07  0.61468725E-07  0.64902142E-07
  0.67873050E-07  0.70371905E-07  0.72392209E-07  0.73930503E-07  0.74986321E-07
  0.75562145E-07  0.75663331E-07  0.75298024E-07  0.74477057E-07  0.73213836E-07
  0.71524211E-07  0.69426334E-07  0.66940510E-07  0.64089028E-07  0.60895998E-07
  0.57387163E-07  0.53589721E-07  0.49532125E-07  0.45243898E-07  0.40755425E-07
  0.36097761E-07  0.31302425E-07  0.26401203E-07  0.21425953E-07  0.16408405E-07
  0.11379978E-07  0.63715888E-08  0.14134790E-08 -0.34649592E-08 -0.82353443E-08
 -0.12870460E-07 -0.17344399E-07 -0.21632696E-07 -0.25712450E-07 -0.29562438E-07
 -0.33163208E-07 -0.36497171E-07 -0.39548672E-07 -0.42304050E-07 -0.44751687E-07
 -0.46882039E-07 -0.48687663E-07 -0.50163220E-07 -0.51305472E-07 -0.52113266E-07
 -0.52587502E-07 -0.52731093E-07 -0.52548913E-07 -0.52047730E-07 -0.51236138E-07
 -0.50124465E-07 -0.48724689E-07 -0.47050329E-07 -0.45116343E-07 -0.42939007E-07
 -0.40535798E-07 -0.37925264E-07 -0.35126897E-07 -0.32160994E-07 -0.29048525E-07
 -0.25810991E-07 -0.22470286E-07 -0.19048558E-07 -0.15568070E-07 -0.12051063E-07
 -0.85196236E-08 -0.49955493E-08 -0.15002246E-08  0.19455030E-08  0.53214398E-08
  0.86081572E-08  0.11787096E-07  0.14840665E-07  0.17752332E-07  0.20506701E-07
  0.23089595E-07  0.25488113E-07  0.27690692E-07  0.29687154E-07  0.31468741E-07
  0.33028149E-07  0.34359546E-07  0.35458581E-07  0.36322389E-07  0.36949582E-07
  0.37340234E-07  0.37495853E-07  0.37419354E-07  0.37115013E-07  0.36588421E-07
  0.35846428E-07  0.34897081E-07  0.33749555E-07  0.32414082E-07  0.30901867E-07
  0.29225007E-07  0.27396403E-07  0.25429668E-07  0.23339034E-07  0.21139257E-07
  0.18845514E-07  0.16473310E-07  0.14038377E-07  0.11556572E-07  0.90437833E-08
  0.65158328E-08  0.39883789E-08  0.14768264E-08 -0.10037630E-08 -0.34387570E-08
 -0.58140339E-08 -0.81160602E-08 -0.10331963E-07 -0.12449598E-07 -0.14457610E-07
 -0.16345492E-07 -0.18103630E-07 -0.19723355E-07 -0.21196972E-07 -0.22517799E-07
 -0.23680183E-07 -0.24679528E-07 -0.25512296E-07 -0.26176021E-07 -0.26669300E-07
 -0.26991788E-07 -0.27144185E-07 -0.27128210E-07 -0.26946581E-07 -0.26602980E-07
 -0.26102014E-07 -0.25449177E-07 -0.24650798E-07 -0.23713994E-07 -0.22646612E-07
 -0.21457170E-07 -0.20154799E-07 -0.18749173E-07 -0.17250445E-07 -0.15669177E-07
 -0.14016270E-07 -0.12302896E-07 -0.10540418E-07 -0.87403291E-08 -0.69141708E-08
 -0.50734693E-08 -0.32296626E-08 -0.13940338E-08  0.42235539E-09  0.22087278E-08
  0.39546524E-08  0.56501014E-08  0.72855055E-08  0.88518048E-08  0.10340496E-07
  0.11743674E-07  0.13054074E-07  0.14265103E-07  0.15370870E-07  0.16366214E-07
  0.17246718E-07  0.18008733E-07  0.18649381E-07  0.19166566E-07  0.19558972E-07
  0.19826060E-07  0.19968063E-07  0.19985967E-07  0.19881498E-07  0.19657102E-07
  0.19315914E-07  0.18861733E-07  0.18298990E-07  0.17632709E-07  0.16868467E-07
  0.16012358E-07  0.15070940E-07  0.14051196E-07  0.12960482E-07  0.11806476E-07
  0.10597131E-07  0.93406175E-08  0.80452740E-08  0.67195540E-08  0.53719724E-08
  0.40110531E-08  0.26452776E-08  0.12830339E-08 -0.67432710E-10 -0.13980676E-08
 -0.27010528E-08 -0.39688509E-08 -0.51942468E-08 -0.63703865E-08 -0.74908136E-08
 -0.85495026E-08 -0.95408893E-08 -0.10459898E-07 -0.11301964E-07 -0.12063057E-07
 -0.12739694E-07 -0.13328956E-07 -0.13828494E-07 -0.14236539E-07 -0.14551902E-07
 -0.14773975E-07 -0.14902722E-07 -0.14938677E-07 -0.14882929E-07 -0.14737108E-07
 -0.14503369E-07 -0.14184370E-07 -0.13783248E-07 -0.13303598E-07 -0.12749437E-07
 -0.12125181E-07 -0.11435611E-07 -0.10685833E-07 -0.98812529E-08 -0.90275300E-08
 -0.81305447E-08 -0.71963582E-08 -0.62311732E-08 -0.52412946E-08 -0.42330898E-08
 -0.32129494E-08 -0.21872478E-08 -0.11623055E-08 -0.14435099E-09  0.86051560E-09
  0.18463574E-08  0.28074349E-08  0.37382374E-08  0.46335140E-08  0.54883013E-08
  0.62979495E-08  0.70581466E-08  0.77649397E-08  0.84147540E-08  0.90044093E-08
  0.95311339E-08  0.99925759E-08  0.10386812E-07  0.10712352E-07  0.10968143E-07
  0.11153572E-07  0.11268459E-07  0.11313055E-07  0.11288036E-07  0.11194489E-07
  0.11033904E-07  0.10808158E-07  0.10519498E-07  0.10170523E-07  0.97641630E-08
  0.93036569E-08  0.87925296E-08  0.82345661E-08  0.76337851E-08  0.69944119E-08
  0.63208497E-08  0.56176506E-08  0.48894863E-08  0.41411182E-08  0.33773671E-08
  0.26030834E-08  0.18231173E-08  0.10422896E-08  0.26536259E-09 -0.50298778E-09
 -0.12581992E-08 -0.19958490E-08 -0.27116794E-08 -0.34016207E-08 -0.40618137E-08
 -0.46886304E-08 -0.52786928E-08 -0.58288900E-08 -0.63363937E-08 -0.67986718E-08
 -0.72134994E-08 -0.75789687E-08 -0.78934962E-08 -0.81558283E-08 -0.83650442E-08
 -0.85205578E-08 -0.86221162E-08 -0.86697974E-08 -0.86640054E-08 -0.86054635E-08
 -0.84952061E-08 -0.83345678E-08 -0.81251721E-08 -0.78689177E-08 -0.75679630E-08
 -0.72247103E-08 -0.68417880E-08 -0.64220314E-08 -0.59684634E-08 -0.54842735E-08
 -0.49727962E-08 -0.44374896E-08 -0.38819122E-08 -0.33097002E-08 -0.27245451E-08
 -0.21301696E-08 -0.15303057E-08 -0.92867120E-09 -0.32894793E-09  0.26524051E-09
  0.85034972E-09  0.14229351E-08  0.19796713E-08  0.25173710E-08  0.30330024E-08
  0.35237057E-08  0.39868082E-08  0.44198382E-08  0.48205372E-08  0.51868714E-08
  0.55170408E-08  0.58094872E-08  0.60629009E-08  0.62762253E-08  0.64486604E-08
  0.65796639E-08  0.66689521E-08  0.67164976E-08  0.67225269E-08  0.66875156E-08
  0.66121824E-08  0.64974820E-08  0.63445962E-08  0.61549238E-08  0.59300699E-08
  0.56718334E-08  0.53821934E-08  0.50632956E-08  0.47174369E-08  0.43470498E-08
  0.39546858E-08  0.35429986E-08  0.31147269E-08  0.26726767E-08  0.22197033E-08
  0.17586938E-08  0.12925489E-08  0.82416512E-09  0.35641768E-09 -0.10785699E-09
 -0.56587781E-09 -0.10149353E-08 -0.14524070E-08 -0.18757725E-08 -0.22826272E-08
 -0.26706958E-08 -0.30378443E-08 -0.33820912E-08 -0.37016178E-08 -0.39947773E-08
 kinetic energy density (partial)
  0.10508984E+03  0.10505593E+03  0.10495428E+03  0.10478505E+03  0.10454857E+03
  0.10424525E+03  0.10387563E+03  0.10344038E+03  0.10294027E+03  0.10237619E+03
  0.10174915E+03  0.10106026E+03  0.10031072E+03  0.99501863E+02  0.98635092E+02
  0.97711918E+02  0.96733937E+02  0.95702832E+02  0.94620366E+02  0.93488377E+02
  0.92308776E+02  0.91083536E+02  0.89814693E+02  0.88504338E+02  0.87154609E+02
  0.85767691E+02  0.84345805E+02  0.82891206E+02  0.81406175E+02  0.79893015E+02
  0.78354043E+02  0.76791588E+02  0.75207984E+02  0.73605562E+02  0.71986648E+02
  0.70353555E+02  0.68708582E+02  0.67054005E+02  0.65392072E+02  0.63725002E+02
  0.62054978E+02  0.60384143E+02  0.58714595E+02  0.57048386E+02  0.55387514E+02
  0.53733925E+02  0.52089504E+02  0.50456078E+02  0.48835406E+02  0.47229185E+02
  0.45639040E+02  0.44066527E+02  0.42513129E+02  0.40980257E+02  0.39469243E+02
  0.37981348E+02  0.36517750E+02  0.35079555E+02  0.33667788E+02  0.32283397E+02
  0.30927252E+02  0.29600144E+02  0.28302790E+02  0.27035829E+02  0.25799823E+02
  0.24595262E+02  0.23422563E+02  0.22282069E+02  0.21174055E+02  0.20098727E+02
  0.19056223E+02  0.18046619E+02  0.17069925E+02  0.16126093E+02  0.15215016E+02
  0.14336530E+02  0.13490420E+02  0.12676417E+02  0.11894206E+02  0.11143423E+02
  0.10423663E+02  0.97344785E+01  0.90753851E+01  0.84458616E+01  0.78453542E+01
  0.72732783E+01  0.67290218E+01  0.62119470E+01  0.57213934E+01  0.52566801E+01
  0.48171085E+01  0.44019644E+01  0.40105204E+01  0.36420382E+01  0.32957708E+01
  0.29709647E+01  0.26668620E+01  0.23827020E+01  0.21177239E+01  0.18711678E+01
  0.16422769E+01  0.14302992E+01  0.12344887E+01  0.10541074E+01  0.88842630E+00
  0.73672697E+00  0.59830257E+00  0.47245913E+00  0.35851654E+00  0.25580951E+00
  0.16368850E+00  0.81520415E-01  0.86893982E-02 -0.55402593E-01 -0.11133523E+00
 -0.15966935E+00 -0.20094656E+00 -0.23568894E+00 -0.26439877E+00 -0.28755837E+00
 -0.30563000E+00 -0.31905579E+00 -0.32825778E+00 -0.33363795E+00 -0.33557840E+00
 -0.33444146E+00 -0.33056998E+00 -0.32428755E+00 -0.31589883E+00 -0.30568992E+00
 -0.29392868E+00 -0.28086524E+00 -0.26673238E+00 -0.25174602E+00 -0.23610573E+00
 -0.21999525E+00 -0.20358304E+00 -0.18702280E+00 -0.17045406E+00 -0.15400276E+00
 -0.13778185E+00 -0.12189184E+00 -0.10642144E+00 -0.91448126E-01 -0.77038769E-01
 -0.63250197E-01 -0.50129801E-01 -0.37716117E-01 -0.26039401E-01 -0.15122195E-01
 -0.49798849E-02  0.43787594E-02  0.12951049E-01  0.20739864E-01  0.27753145E-01
  0.34003419E-01  0.39507318E-01  0.44285141E-01  0.48360410E-01  0.51759464E-01
  0.54511060E-01  0.56645996E-01  0.58196757E-01  0.59197178E-01  0.59682125E-01
  0.59687196E-01  0.59248448E-01  0.58402130E-01  0.57184451E-01  0.55631356E-01
  0.53778321E-01  0.51660172E-01  0.49310917E-01  0.46763596E-01  0.44050149E-01
  0.41201299E-01  0.38246451E-01  0.35213605E-01  0.32129285E-01  0.29018479E-01
  0.25904596E-01  0.22809433E-01  0.19753149E-01  0.16754261E-01  0.13829640E-01
  0.10994521E-01  0.82625182E-02  0.56456572E-02  0.31544033E-02  0.79770374E-03
 -0.14169662E-02 -0.34835515E-02 -0.53973606E-02 -0.71550052E-02 -0.87543351E-02
 -0.10194372E-01 -0.11475239E-01 -0.12598088E-01 -0.13565031E-01 -0.14379059E-01
 -0.15043974E-01 -0.15564313E-01 -0.15945271E-01 -0.16192630E-01 -0.16312690E-01
 -0.16312191E-01 -0.16198252E-01 -0.15978297E-01 -0.15659997E-01 -0.15251202E-01
 -0.14759887E-01 -0.14194088E-01 -0.13561858E-01 -0.12871207E-01 -0.12130064E-01
 -0.11346223E-01 -0.10527310E-01 -0.96807427E-02 -0.88136977E-02 -0.79330779E-02
 -0.70454874E-02 -0.61572065E-02 -0.52741716E-02 -0.44019576E-02 -0.35457634E-02
 -0.27104010E-02 -0.19002871E-02 -0.11194371E-02 -0.37146271E-03  0.34042872E-03
  0.10134319E-02  0.16451394E-02  0.22335350E-02  0.27769856E-02  0.32742306E-02
  0.37243701E-02  0.41268516E-02  0.44814550E-02  0.47882767E-02  0.50477129E-02
  0.52604411E-02  0.54274018E-02  0.55497793E-02  0.56289818E-02  0.56666215E-02
  0.56644943E-02  0.56245593E-02  0.55489190E-02  0.54397989E-02  0.52995278E-02
  0.51305183E-02  0.49352479E-02  0.47162404E-02  0.44760485E-02  0.42172363E-02
  0.39423630E-02  0.36539678E-02  0.33545547E-02  0.30465793E-02  0.27324356E-02
  0.24144445E-02  0.20948426E-02  0.17757730E-02  0.14592761E-02  0.11472817E-02
  0.84160279E-03  0.54392951E-03  0.25582439E-03 -0.21281256E-04 -0.28609018E-03
 -0.53744106E-03 -0.77430944E-03 -0.99580787E-03 -0.12011852E-02 -0.13898249E-02
 -0.15612432E-02 -0.17150858E-02 -0.18511244E-02 -0.19692528E-02 -0.20694816E-02
 -0.21519338E-02 -0.22168384E-02 -0.22645249E-02 -0.22954166E-02 -0.23100242E-02
 -0.23089387E-02 -0.22928247E-02 -0.22624125E-02 -0.22184917E-02 -0.21619031E-02
 -0.20935320E-02 -0.20143003E-02 -0.19251599E-02 -0.18270851E-02 -0.17210662E-02
 -0.16081023E-02 -0.14891953E-02 -0.13653431E-02 -0.12375341E-02 -0.11067415E-02
 -0.97391775E-03 -0.83998959E-03 -0.70585362E-03 -0.57237186E-03 -0.44036793E-03
 -0.31062353E-03 -0.18387534E-03 -0.60812298E-04  0.57926723E-04  0.17175483E-03
  0.28013868E-03  0.38259959E-03  0.47871440E-03  0.56811581E-03  0.65049254E-03
  0.72558899E-03  0.79320472E-03  0.85319350E-03  0.90546216E-03  0.94996911E-03
  0.98672263E-03  0.10157790E-02  0.10372401E-02  0.10512516E-02  0.10579996E-02
  0.10577088E-02  0.10506392E-02  0.10370834E-02  0.10173635E-02  0.99182801E-03
  0.96084889E-03  0.92481834E-03  0.88414566E-03  0.83925413E-03  0.79057791E-03
  0.73855905E-03  0.68364442E-03  0.62628288E-03  0.56692244E-03  0.50600754E-03
  0.44397651E-03  0.38125909E-03  0.31827410E-03  0.25542731E-03  0.19310937E-03
  0.13169402E-03  0.71536368E-04  0.12971385E-04 -0.43687433E-04 -0.98149230E-04
 -0.15014678E-03 -0.19943729E-03 -0.24580304E-03 -0.28905188E-03 -0.32901746E-03
 -0.36555943E-03 -0.39856334E-03 -0.42794053E-03 -0.45362775E-03 -0.47558668E-03
 -0.49380337E-03 -0.50828745E-03 -0.51907131E-03 -0.52620916E-03 -0.52977593E-03
 -0.52986617E-03 -0.52659278E-03 -0.52008574E-03 -0.51049076E-03 -0.49796788E-03
 -0.48268998E-03 -0.46484139E-03 -0.44461629E-03 -0.42221731E-03 -0.39785396E-03
 -0.37174113E-03 -0.34409766E-03 -0.31514483E-03 -0.28510493E-03 -0.25419994E-03
 -0.22265011E-03 -0.19067271E-03 -0.15848082E-03 -0.12628213E-03 -0.94277865E-04
 -0.62661763E-04 -0.31619123E-04 -0.13259507E-05  0.28051831E-04  0.56359072E-04
  0.83452009E-04  0.10919878E-03  0.13347988E-03  0.15618847E-03  0.17723068E-03
  0.19652576E-03  0.21400616E-03  0.22961756E-03  0.24331881E-03  0.25508173E-03
  0.26489095E-03  0.27274356E-03  0.27864880E-03  0.28262762E-03  0.28471218E-03
  0.28494538E-03  0.28338021E-03  0.28007916E-03  0.27511358E-03  0.26856293E-03
  0.26051412E-03  0.25106071E-03  0.24030218E-03  0.22834313E-03  0.21529251E-03
  0.20126283E-03  0.18636934E-03  0.17072933E-03  0.15446125E-03  0.13768404E-03
  0.12051636E-03  0.10307589E-03  0.85478616E-04  0.67838210E-04  0.50265375E-04
  0.32867272E-04  0.15746965E-04 -0.99708769E-06 -0.17271505E-04 -0.32988406E-04
 -0.48065788E-04 -0.62427862E-04 -0.76005339E-04 -0.88735671E-04 -0.10056324E-03
 -0.11143951E-03 -0.12132312E-03 -0.13017993E-03 -0.13798305E-03 -0.14471279E-03
 -0.15035659E-03 -0.15490887E-03 -0.15837093E-03 -0.16075071E-03 -0.16206257E-03
 -0.16232704E-03 -0.16157051E-03 -0.15982495E-03 -0.15712751E-03 -0.15352020E-03
 -0.14904948E-03 -0.14376587E-03 -0.13772353E-03 -0.13097984E-03 -0.12359497E-03
 -0.11563140E-03 -0.10715356E-03 -0.98227292E-04 -0.88919494E-04 -0.79297635E-04
 -0.69429353E-04 -0.59382034E-04 -0.49222410E-04 -0.39016167E-04 -0.28827582E-04
 -0.18719162E-04 -0.87513101E-05  0.10179808E-05  0.10533424E-04  0.19742702E-04
  0.28596709E-04  0.37049768E-04  0.45059817E-04  0.52588576E-04  0.59601680E-04
  0.66068793E-04  0.71963683E-04  0.77264284E-04  0.81952721E-04  0.86015317E-04
  0.89442566E-04  0.92229087E-04  0.94373557E-04  0.95878616E-04  0.96750749E-04
  0.97000157E-04  0.96640598E-04  0.95689217E-04  0.94166361E-04  0.92095373E-04
  0.89502376E-04  0.86416051E-04  0.82867397E-04  0.78889485E-04  0.74517211E-04
  0.69787035E-04  0.64736725E-04  0.59405096E-04  0.53831748E-04  0.48056805E-04
  0.42120663E-04  0.36063736E-04  0.29926211E-04  0.23747809E-04  0.17567554E-04
  0.11423555E-04  0.53527978E-05 -0.60905799E-06 -0.64278589E-05 -0.12071131E-04
 -0.17508238E-04 -0.22710523E-04 -0.27651434E-04 -0.32306639E-04 -0.36654121E-04
 -0.40674254E-04 -0.44349871E-04 -0.47666306E-04 -0.50611432E-04 -0.53175666E-04
 -0.55351976E-04 -0.57135862E-04 -0.58525324E-04 -0.59520820E-04 -0.60125201E-04
 -0.60343645E-04 -0.60183567E-04 -0.59654528E-04 -0.58768124E-04 -0.57537871E-04
 -0.55979079E-04 -0.54108720E-04 -0.51945285E-04 -0.49508640E-04 -0.46819871E-04
 -0.43901134E-04 -0.40775492E-04 -0.37466755E-04 -0.33999324E-04 -0.30398021E-04
 -0.26687939E-04 -0.22894276E-04 -0.19042183E-04 -0.15156613E-04 -0.11262174E-04
 -0.73829846E-05 -0.35425422E-05  0.23640778E-06  0.39319931E-05  0.75233280E-05
  0.10990618E-04  0.14315258E-04  0.17479915E-04  0.20468611E-04  0.23266785E-04
  0.25861356E-04  0.28240764E-04  0.30395016E-04  0.32315701E-04  0.33996020E-04
  0.35430782E-04  0.36616406E-04  0.37550909E-04  0.38233880E-04  0.38666453E-04
  0.38851264E-04  0.38792408E-04  0.38495375E-04  0.37966996E-04  0.37215366E-04
  0.36249775E-04  0.35080620E-04  0.33719324E-04  0.32178241E-04  0.30470564E-04
  0.28610228E-04  0.26611809E-04  0.24490420E-04  0.22261613E-04  0.19941272E-04
  0.17545511E-04  0.15090571E-04  0.12592720E-04  0.10068154E-04  0.75328964E-05
  0.50027108E-05  0.24930056E-05  0.18750366E-07 -0.24056070E-05 -0.47662166E-05
 -0.70498987E-05 -0.92442096E-05 -0.11337503E-04 -0.13318982E-04 -0.15178752E-04
 -0.16907857E-04 -0.18498320E-04 -0.19943166E-04 -0.21236451E-04 -0.22373270E-04
 -0.23349773E-04 -0.24163163E-04 -0.24811690E-04 -0.25294647E-04 -0.25612349E-04
 -0.25766112E-04 -0.25758223E-04 -0.25591911E-04 -0.25271308E-04 -0.24801401E-04
 -0.24187992E-04 -0.23437642E-04 -0.22557619E-04 -0.21555838E-04 -0.20440801E-04
 -0.19221537E-04 -0.17907532E-04 -0.16508664E-04 -0.15035140E-04 -0.13497421E-04
 -0.11906157E-04 -0.10272122E-04 -0.86061390E-05 -0.69190196E-05 -0.52214959E-05
 -0.35241578E-05 -0.18373912E-05 -0.17131912E-06  0.14642545E-05  0.30598985E-05
  0.46066040E-05  0.60958315E-05  0.75195535E-05  0.88702933E-05  0.10141160E-04
  0.11325879E-04  0.12418820E-04  0.13415015E-04  0.14310180E-04  0.15100726E-04
  0.15783770E-04  0.16357135E-04  0.16819354E-04  0.17169664E-04  0.17407998E-04
  0.17534970E-04  0.17551863E-04  0.17460606E-04  0.17263750E-04  0.16964443E-04
  0.16566397E-04  0.16073859E-04  0.15491571E-04  0.14824737E-04  0.14078977E-04
  0.13260293E-04  0.12375017E-04  0.11429773E-04  0.10431430E-04  0.93870550E-05
  0.83038657E-05  0.71891864E-05  0.60504002E-05  0.48949036E-05  0.37300613E-05
  0.25631622E-05  0.14013766E-05  0.25171483E-06 -0.87901220E-06 -0.19842309E-05
 -0.30576404E-05 -0.40932460E-05 -0.50853900E-05 -0.60287798E-05 -0.69185136E-05
 -0.77501032E-05 -0.85194939E-05 -0.92230812E-05 -0.98577246E-05 -0.10420759E-04
 -0.10910001E-04 -0.11323756E-04 -0.11660818E-04 -0.11920468E-04 -0.12102472E-04
 -0.12207071E-04 -0.12234976E-04 -0.12187347E-04 -0.12065789E-04 -0.11872325E-04
 -0.11609382E-04 -0.11279767E-04 -0.10886645E-04 -0.10433511E-04 -0.99241677E-05
 -0.93626912E-05 -0.87534060E-05 -0.81008532E-05 -0.74097588E-05 -0.66850026E-05
 -0.59315854E-05 -0.51545971E-05 -0.43591841E-05 -0.35505171E-05 -0.27337596E-05
 -0.19140363E-05 -0.10964034E-05 -0.28581823E-06  0.51288822E-06  0.12950390E-05
  0.20561369E-05  0.27918883E-05  0.34982261E-05  0.41713305E-05  0.48076478E-05
  0.54039078E-05  0.59571385E-05  0.64646792E-05  0.69241917E-05  0.73336686E-05
  0.76914405E-05  0.79961800E-05  0.82469043E-05  0.84429755E-05  0.85840986E-05
  0.86703175E-05  0.87020095E-05  0.86798771E-05  0.86049388E-05  0.84785172E-05
  0.83022265E-05  0.80779578E-05  0.78078626E-05  0.74943364E-05  0.71399995E-05
  0.67476776E-05  0.63203815E-05  0.58612857E-05  0.53737066E-05  0.48610799E-05
  0.43269382E-05  0.37748876E-05  0.32085850E-05  0.26317151E-05  0.20479673E-05
  0.14610137E-05  0.87448678E-06  0.29195834E-06 -0.28308145E-06 -0.84724372E-06
 -0.13972599E-05 -0.19299994E-05 -0.24424868E-05 -0.29319170E-05 -0.33956695E-05
 -0.38313217E-05 -0.42366601E-05 -0.46096907E-05 -0.49486471E-05 -0.52519982E-05
 -0.55184534E-05 -0.57469667E-05 -0.59367392E-05 -0.60872201E-05 -0.61981061E-05
 -0.62693391E-05 -0.63011034E-05 -0.62938200E-05 -0.62481408E-05 -0.61649411E-05
 -0.60453104E-05 -0.58905428E-05 -0.57021262E-05 -0.54817295E-05 -0.52311905E-05
 -0.49525018E-05 -0.46477962E-05 -0.43193319E-05 -0.39694766E-05 -0.36006918E-05
 -0.32155162E-05 -0.28165491E-05 -0.24064339E-05 -0.19878413E-05 -0.15634527E-05
 -0.11359439E-05 -0.70796873E-06 -0.28214370E-06  0.13896771E-06  0.55286950E-06
  0.95714736E-06  0.13494820E-05  0.17276618E-05  0.20895946E-05  0.24333185E-05
  0.27570118E-05  0.30590020E-05  0.33377737E-05  0.35919751E-05  0.38204241E-05
  0.40221131E-05  0.41962116E-05  0.43420698E-05  0.44592187E-05  0.45473710E-05
  0.46064199E-05  0.46364370E-05  0.46376692E-05  0.46105347E-05  0.45556179E-05
  0.44736634E-05  0.43655690E-05  0.42323783E-05  0.40752719E-05  0.38955583E-05
  0.36946642E-05  0.34741240E-05  0.32355692E-05  0.29807167E-05  0.27113572E-05
  0.24293437E-05  0.21365788E-05  0.18350028E-05  0.15265814E-05  0.12132931E-05
  0.89711747E-06  0.58002279E-06  0.26395445E-06 -0.49176511E-07 -0.35750454E-06
 -0.65922017E-06 -0.95258018E-06 -0.12359172E-05 -0.15076488E-05 -0.17662857E-05
 -0.20104396E-05 -0.22388300E-05 -0.24502906E-05 -0.26437745E-05 -0.28183591E-05
 -0.29732496E-05 -0.31077825E-05 -0.32214269E-05 -0.33137868E-05 -0.33846009E-05
 -0.34337427E-05 -0.34612188E-05 -0.34671677E-05 -0.34518565E-05 -0.34156777E-05
 -0.33591453E-05 -0.32828893E-05 -0.31876509E-05 -0.30742762E-05 -0.29437097E-05
 -0.27969868E-05 -0.26352270E-05 -0.24596250E-05 -0.22714434E-05 -0.20720032E-05
 -0.18626757E-05 -0.16448731E-05 -0.14200392E-05 -0.11896410E-05 -0.95515849E-06
 -0.71807621E-06 -0.47987390E-06 -0.24201768E-06 -0.59513431E-08  0.22691210E-06
  0.45519855E-06  0.67758059E-06  0.89278489E-06  0.10995992E-05  0.12968789E-05
  0.14835528E-05  0.16586289E-05  0.18211992E-05  0.19704440E-05  0.21056357E-05
  0.22261419E-05  0.23314282E-05  0.24210597E-05  0.24947025E-05  0.25521245E-05
  0.25931950E-05  0.26178847E-05  0.26262639E-05  0.26185012E-05  0.25948608E-05
  0.25557000E-05  0.25014654E-05  0.24326893E-05  0.23499849E-05  0.22540421E-05
  0.21456217E-05  0.20255504E-05  0.18947144E-05  0.17540535E-05  0.16045547E-05
  0.14472455E-05  0.12831873E-05  0.11134681E-05  0.93919624E-06  0.76149272E-06
  0.58148469E-06  0.40029835E-06  0.21905222E-06  0.38850386E-07 -0.13922392E-06
 -0.31411465E-06 -0.48479897E-06 -0.65029305E-06 -0.80965744E-06 -0.96200226E-06
 -0.11064919E-05 -0.12423494E-05 -0.13688602E-05 -0.14853762E-05 -0.15913180E-05
 -0.16861782E-05 -0.17695234E-05 -0.18409954E-05 -0.19003131E-05 -0.19472727E-05
 -0.19817481E-05 -0.20036906E-05 -0.20131283E-05 -0.20101648E-05 -0.19949779E-05
 -0.19678169E-05 -0.19290010E-05 -0.18789160E-05 -0.18180110E-05 -0.17467952E-05
 -0.16658338E-05 -0.15757441E-05 -0.14771907E-05 -0.13708814E-05 -0.12575618E-05
 -0.11380107E-05 -0.10130348E-05 -0.88346351E-06 -0.75014359E-06 -0.61393383E-06
 -0.47569966E-06 -0.33630788E-06 -0.19662132E-06 -0.57493741E-07  0.80235299E-07
  0.21574530E-06  0.34823957E-06  0.47694976E-06  0.60114014E-06  0.72011167E-06
  0.83320576E-06  0.93980776E-06  0.10393501E-05  0.11313153E-05  0.12152381E-05
  0.12907081E-05  0.13573713E-05  0.14149314E-05  0.14631514E-05  0.15018536E-05
  0.15309205E-05  0.15502945E-05  0.15599775E-05  0.15600304E-05  0.15505717E-05
  0.15317761E-05  0.15038730E-05  0.14671441E-05  0.14219214E-05  0.13685843E-05
  0.13075568E-05  0.12393043E-05  0.11643306E-05  0.10831739E-05  0.99640350E-06
  0.90461574E-06  0.80843019E-06  0.70848555E-06  0.60543556E-06  0.49994487E-06
  0.39268484E-06  0.28432945E-06  0.17555113E-06  0.67016733E-07 -0.40616447E-07
 -0.14670453E-06 -0.25062082E-06 -0.35175933E-06 -0.44953830E-06 -0.54340333E-06
 -0.63283047E-06 -0.71732902E-06 -0.79644409E-06 -0.86975894E-06 -0.93689702E-06
 atomic pseudo charge-density
  0.60000000E+01  0.59876385E+01  0.59507352E+01  0.58898286E+01  0.58057971E+01
  0.56998309E+01  0.55733955E+01  0.54281887E+01  0.52660925E+01  0.50891230E+01
  0.48993802E+01  0.46990005E+01  0.44901118E+01  0.42747944E+01  0.40550472E+01
  0.38327599E+01  0.36096921E+01  0.33874572E+01  0.31675132E+01  0.29511571E+01
  0.27395246E+01  0.25335923E+01  0.23341841E+01  0.21419781E+01  0.19575165E+01
  0.17812152E+01  0.16133757E+01  0.14541952E+01  0.13037783E+01  0.11621476E+01
  0.10292537E+01  0.90498539E+00  0.78917859E+00  0.68162457E+00  0.58207778E+00
  0.49026282E+00  0.40588074E+00  0.32861465E+00  0.25813474E+00  0.19410273E+00
  0.13617569E+00  0.84009485E-01  0.37261608E-01 -0.44062848E-02 -0.41326298E-01
 -0.73822538E-01 -0.10220968E+00 -0.12679179E+00 -0.14786146E+00 -0.16569907E+00
 -0.18057232E+00 -0.19273593E+00 -0.20243142E+00 -0.20988713E+00 -0.21531824E+00
 -0.21892693E+00 -0.22090269E+00 -0.22142254E+00 -0.22065144E+00 -0.21874271E+00
 -0.21583842E+00 -0.21206989E+00 -0.20755814E+00 -0.20241441E+00 -0.19674063E+00
 -0.19062993E+00 -0.18416714E+00 -0.17742923E+00 -0.17048584E+00 -0.16339972E+00
 -0.15622718E+00 -0.14901851E+00 -0.14181842E+00 -0.13466644E+00 -0.12759728E+00
 -0.12064121E+00 -0.11382440E+00 -0.10716928E+00 -0.10069478E+00 -0.94416703E-01
 -0.88347948E-01 -0.82498790E-01 -0.76877122E-01 -0.71488678E-01 -0.66337251E-01
 -0.61424890E-01 -0.56752084E-01 -0.52317936E-01 -0.48120322E-01 -0.44156040E-01
 -0.40420945E-01 -0.36910078E-01 -0.33617779E-01 -0.30537796E-01 -0.27663386E-01
 -0.24987399E-01 -0.22502364E-01 -0.20200562E-01 -0.18074097E-01 -0.16114953E-01
 -0.14315051E-01 -0.12666302E-01 -0.11160646E-01 -0.97900960E-02 -0.85467726E-02
 -0.74229330E-02 -0.64110000E-02 -0.55035846E-02 -0.46935064E-02 -0.39738106E-02
 -0.33377824E-02 -0.27789582E-02 -0.22911350E-02 -0.18683774E-02 -0.15050224E-02
 -0.11956826E-02 -0.93524775E-03 -0.71888432E-03 -0.54203442E-03 -0.40041288E-03
 -0.29000356E-03 -0.20705450E-03 -0.14807232E-03 -0.10981575E-03 -0.89288577E-04
 -0.83731953E-04 -0.90616239E-04 -0.10763244E-03 -0.13268327E-03 -0.16387400E-03
 -0.19950305E-03 -0.23805249E-03 -0.27817835E-03 -0.31870106E-03 -0.35859569E-03
 -0.39698243E-03 -0.43311702E-03 -0.46638138E-03 -0.49627439E-03 -0.52240283E-03
 -0.54447254E-03 -0.56227985E-03 -0.57570326E-03 -0.58469532E-03 -0.58927498E-03
 -0.58952002E-03 -0.58556003E-03 -0.57756952E-03 -0.56576155E-03 -0.55038152E-03
 -0.53170150E-03 -0.51001473E-03 -0.48563062E-03 -0.45886999E-03 -0.43006076E-03
 -0.39953387E-03 -0.36761967E-03 -0.33464453E-03 -0.30092786E-03 -0.26677938E-03
 -0.23249681E-03 -0.19836370E-03 -0.16464773E-03 -0.13159915E-03 -0.99449546E-04
 -0.68410883E-04 -0.38674736E-04 -0.10411793E-04  0.16228443E-04  0.41117753E-04
  0.64149105E-04  0.85236386E-04  0.10431398E-03  0.12133620E-03  0.13627657E-03
  0.14912704E-03  0.15989702E-03  0.16861242E-03  0.17531452E-03  0.18005884E-03
  0.18291397E-03  0.18396027E-03  0.18328866E-03  0.18099931E-03  0.17720038E-03
  0.17200672E-03  0.16553861E-03  0.15792053E-03  0.14927991E-03  0.13974603E-03
  0.12944882E-03  0.11851784E-03  0.10708120E-03  0.95264675E-04  0.83190775E-04
  0.70977921E-04  0.58739710E-04  0.46584229E-04  0.34613465E-04  0.22922772E-04
  0.11600432E-04  0.72727877E-06 -0.96235935E-05 -0.19387052E-04 -0.28506072E-04
 -0.36931816E-04 -0.44623644E-04 -0.51549056E-04 -0.57683579E-04 -0.63010591E-04
 -0.67521095E-04 -0.71213441E-04 -0.74093000E-04 -0.76171806E-04 -0.77468151E-04
 -0.78006153E-04 -0.77815301E-04 -0.76929966E-04 -0.75388907E-04 -0.73234757E-04
 -0.70513497E-04 -0.67273937E-04 -0.63567183E-04 -0.59446119E-04 -0.54964889E-04
 -0.50178399E-04 -0.45141822E-04 -0.39910134E-04 -0.34537662E-04 -0.29077659E-04
 -0.23581905E-04 -0.18100336E-04 -0.12680701E-04 -0.73682564E-05 -0.22054847E-05
  0.27681471E-05  0.75163969E-05  0.12006423E-04  0.16208922E-04  0.20098240E-04
  0.23652439E-04  0.26853337E-04  0.29686517E-04  0.32141300E-04  0.34210692E-04
  0.35891300E-04  0.37183225E-04  0.38089927E-04  0.38618069E-04  0.38777339E-04
  0.38580256E-04  0.38041959E-04  0.37179980E-04  0.36014006E-04  0.34565634E-04
  0.32858120E-04  0.30916117E-04  0.28765415E-04  0.26432685E-04  0.23945214E-04
  0.21330655E-04  0.18616777E-04  0.15831224E-04  0.13001282E-04  0.10153659E-04
  0.73142815E-05  0.45080919E-05  0.17588755E-05 -0.91090590E-06 -0.34802603E-05
 -0.59297956E-05 -0.82418309E-05 -0.10400491E-04 -0.12391781E-04 -0.14203643E-04
 -0.15825998E-04 -0.17250762E-04 -0.18471853E-04 -0.19485175E-04 -0.20288589E-04
 -0.20881868E-04 -0.21266636E-04 -0.21446292E-04 -0.21425926E-04 -0.21212221E-04
 -0.20813339E-04 -0.20238809E-04 -0.19499400E-04 -0.18606983E-04 -0.17574403E-04
 -0.16415327E-04 -0.15144107E-04 -0.13775633E-04 -0.12325182E-04 -0.10808281E-04
 -0.92405583E-05 -0.76376085E-05 -0.60148560E-05 -0.43874265E-05 -0.27700251E-05
 -0.11768203E-05  0.37866278E-06  0.18836408E-05  0.33261618E-05  0.46951840E-05
  0.59806457E-05  0.71735234E-05  0.82658807E-05  0.92509048E-05  0.10122934E-04
  0.10877473E-04  0.11511198E-04  0.12021953E-04  0.12408734E-04  0.12671664E-04
  0.12811963E-04  0.12831902E-04  0.12734753E-04  0.12524737E-04  0.12206955E-04
  0.11787320E-04  0.11272484E-04  0.10669757E-04  0.99870245E-05  0.92326636E-05
  0.84154545E-05  0.75444929E-05  0.66291012E-05  0.56787400E-05  0.47029212E-05
  0.37111233E-05  0.27127080E-05  0.17168417E-05  0.73241966E-06 -0.23200536E-06
 -0.11682889E-05 -0.20687561E-05 -0.29262567E-05 -0.37342142E-05 -0.44866690E-05
 -0.51783146E-05 -0.58045273E-05 -0.63613893E-05 -0.68457047E-05 -0.72550093E-05
 -0.75875729E-05 -0.78423962E-05 -0.80192005E-05 -0.81184116E-05 -0.81411380E-05
 -0.80891438E-05 -0.79648161E-05 -0.77711284E-05 -0.75115989E-05 -0.71902460E-05
 -0.68115398E-05 -0.63803512E-05 -0.59018986E-05 -0.53816931E-05 -0.48254818E-05
 -0.42391915E-05 -0.36288711E-05 -0.30006352E-05 -0.23606079E-05 -0.17148682E-05
 -0.10693971E-05 -0.43002656E-06  0.19760850E-06  0.80811574E-06  0.13963875E-05
  0.19576394E-05  0.24874452E-05  0.29817678E-05  0.34369855E-05  0.38499149E-05
  0.42178286E-05  0.45384685E-05  0.48100555E-05  0.50312932E-05  0.52013688E-05
  0.53199490E-05  0.53871712E-05  0.54036318E-05  0.53703703E-05  0.52888491E-05
  0.51609313E-05  0.49888545E-05  0.47752023E-05  0.45228729E-05  0.42350466E-05
  0.39151506E-05  0.35668223E-05  0.31938728E-05  0.28002482E-05  0.23899915E-05
  0.19672041E-05  0.15360081E-05  0.11005081E-05  0.66475596E-06  0.23271456E-06
 -0.19177501E-06 -0.60502546E-06 -0.10035329E-05 -0.13840043E-05 -0.17433823E-05
 -0.20788673E-05 -0.23879373E-05 -0.26683641E-05 -0.29182273E-05 -0.31359244E-05
 -0.33201785E-05 -0.34700427E-05 -0.35849015E-05 -0.36644692E-05 -0.37087854E-05
 -0.37182074E-05 -0.36934006E-05 -0.36353256E-05 -0.35452235E-05 -0.34245987E-05
 -0.32751997E-05 -0.30989984E-05 -0.28981674E-05 -0.26750564E-05 -0.24321673E-05
 -0.21721285E-05 -0.18976684E-05 -0.16115892E-05 -0.13167395E-05 -0.10159882E-05
 -0.71219800E-06 -0.40819976E-06 -0.10676765E-06  0.18940470E-06  0.47772680E-06
  0.75573257E-06  0.10211000E-05  0.12716693E-05  0.15054588E-05  0.17206795E-05
  0.19157471E-05  0.20892924E-05  0.22401689E-05  0.23674592E-05  0.24704784E-05
  0.25487754E-05  0.26021328E-05  0.26305638E-05  0.26343078E-05  0.26138233E-05
  0.25697801E-05  0.25030482E-05  0.24146867E-05  0.23059304E-05  0.21781746E-05
  0.20329602E-05  0.18719562E-05  0.16969426E-05  0.15097916E-05  0.13124496E-05
  0.11069174E-05  0.89523151E-06  0.67944498E-06  0.46160831E-06  0.24375108E-06
  0.27863963E-07 -0.18411860E-06 -0.39033479E-06 -0.58901092E-06 -0.77847579E-06
 -0.95717391E-06 -0.11236774E-05 -0.12766964E-05 -0.14150883E-05 -0.15378653E-05
 -0.16442003E-05 -0.17334315E-05 -0.18050653E-05 -0.18587777E-05 -0.18944138E-05
 -0.19119862E-05 -0.19116720E-05 -0.18938077E-05 -0.18588836E-05 -0.18075361E-05
 -0.17405396E-05 -0.16587968E-05 -0.15633280E-05 -0.14552599E-05 -0.13358132E-05
 -0.12062900E-05 -0.10680605E-05 -0.92254904E-06 -0.77122042E-06 -0.61556585E-06
 -0.45708885E-06 -0.29729139E-06 -0.13766032E-06  0.20345949E-07  0.17531010E-06
  0.32586811E-06  0.47072068E-06  0.60864384E-06  0.73849880E-06  0.85924074E-06
  0.96992664E-06  0.10697220E-05  0.11579067E-05  0.12338792E-05  0.12971602E-05
  0.13473947E-05  0.13843530E-05  0.14079308E-05  0.14181477E-05  0.14151449E-05
  0.13991820E-05  0.13706323E-05  0.13299776E-05  0.12778018E-05  0.12147839E-05
  0.11416901E-05  0.10593655E-05  0.96872458E-06  0.87074235E-06  0.76644386E-06
  0.65689428E-06  0.54318842E-06  0.42644030E-06  0.30777264E-06  0.18830647E-06
  0.69151001E-07 -0.48606333E-07 -0.16390939E-06 -0.27574241E-06 -0.38313862E-06
 -0.48518815E-06 -0.58104546E-06 -0.66993585E-06 -0.75116145E-06 -0.82410620E-06
 -0.88824012E-06 -0.94312273E-06 -0.98840554E-06 -0.10238337E-05 -0.10492468E-05
 -0.10645786E-05 -0.10698564E-05 -0.10651988E-05 -0.10508135E-05 -0.10269939E-05
 -0.99411448E-06 -0.95262685E-06 -0.90305376E-06 -0.84598340E-06 -0.78206292E-06
 -0.71199157E-06 -0.63651344E-06 -0.55640995E-06 -0.47249211E-06 -0.38559264E-06
 -0.29655798E-06 -0.20624040E-06 -0.11549006E-06 -0.25147335E-07  0.63964748E-07
  0.15104771E-06  0.23533454E-06  0.31609619E-06  0.39264762E-06  0.46435333E-06
  0.53063243E-06  0.59096301E-06  0.64488603E-06  0.69200843E-06  0.73200576E-06
  0.76462400E-06  0.78968077E-06  0.80706589E-06  0.81674121E-06  0.81873984E-06
  0.81316471E-06  0.80018656E-06  0.78004127E-06  0.75302671E-06  0.71949904E-06
  0.67986853E-06  0.63459497E-06  0.58418270E-06  0.52917528E-06  0.47014993E-06
  0.40771173E-06  0.34248764E-06  0.27512042E-06  0.20626254E-06  0.13657000E-06
  0.66696360E-07 -0.27132793E-08 -0.71028004E-07 -0.13763666E-06 -0.20195312E-06
 -0.26342129E-06 -0.32151973E-06 -0.37576588E-06 -0.42571988E-06 -0.47098798E-06
 -0.51122540E-06 -0.54613878E-06 -0.57548803E-06 -0.59908776E-06 -0.61680817E-06
 -0.62857533E-06 -0.63437106E-06 -0.63423225E-06 -0.62824969E-06 -0.61656640E-06
 -0.59937559E-06 -0.57691810E-06 -0.54947947E-06 -0.51738670E-06 -0.48100459E-06
 -0.44073188E-06 -0.39699705E-06 -0.35025397E-06 -0.30097737E-06 -0.24965820E-06
 -0.19679884E-06 -0.14290838E-06 -0.88497830E-07 -0.34075434E-07  0.19857974E-07
  0.72813426E-07  0.12431814E-06  0.17391959E-06  0.22118940E-06  0.26572686E-06
  0.30716222E-06  0.34515964E-06  0.37941974E-06  0.40968184E-06  0.43572575E-06
  0.45737324E-06  0.47448904E-06  0.48698145E-06  0.49480258E-06  0.49794811E-06
  0.49645673E-06  0.49040917E-06  0.47992683E-06  0.46517008E-06  0.44633627E-06
  0.42365734E-06  0.39739722E-06  0.36784895E-06  0.33533159E-06  0.30018688E-06
  0.26277584E-06  0.22347514E-06  0.18267345E-06  0.14076768E-06  0.98159260E-07
  0.55250350E-07  0.12440179E-07 -0.29878593E-07 -0.71323379E-07 -0.11152503E-06
 -0.15013103E-06 -0.18680851E-06 -0.22124699E-06 -0.25316094E-06 -0.28229205E-06
 -0.30841121E-06 -0.33132018E-06 -0.35085301E-06 -0.36687710E-06 -0.37929394E-06
 -0.38803956E-06 -0.39308460E-06 -0.39443413E-06 -0.39212711E-06 -0.38623558E-06
 -0.37686350E-06 -0.36414540E-06 -0.34824468E-06 -0.32935174E-06 -0.30768186E-06
 -0.28347288E-06 -0.25698267E-06 -0.22848654E-06 -0.19827445E-06 -0.16664814E-06
 -0.13391823E-06 -0.10040119E-06 -0.66416433E-07 -0.32283269E-07  0.16819737E-08
  0.35168833E-07  0.67875476E-07  0.99511355E-07  0.12979972E-06  0.15847996E-06
  0.18530980E-06  0.21006726E-06  0.23255241E-06  0.25258892E-06  0.27002537E-06
  0.28473626E-06  0.29662287E-06  0.30561376E-06  0.31166508E-06  0.31476061E-06
  0.31491149E-06  0.31215583E-06  0.30655791E-06  0.29820732E-06  0.28721773E-06
  0.27372558E-06  0.25788849E-06  0.23988354E-06  0.21990538E-06  0.19816424E-06
  0.17488373E-06  0.15029868E-06  0.12465277E-06  0.98196223E-07  0.71183414E-07
  0.43870454E-07  0.16512839E-07 -0.10636897E-07 -0.37331460E-07 -0.63330996E-07
 -0.88405199E-07 -0.11233530E-06 -0.13491591E-06 -0.15595677E-06 -0.17528423E-06
 -0.19274272E-06 -0.20819586E-06 -0.22152748E-06 -0.23264248E-06 -0.24146733E-06
 -0.24795057E-06 -0.25206291E-06 -0.25379725E-06 -0.25316846E-06 -0.25021295E-06
 -0.24498804E-06 -0.23757120E-06 -0.22805904E-06 -0.21656622E-06 -0.20322409E-06
 -0.18817936E-06 -0.17159247E-06 -0.15363602E-06 -0.13449296E-06 -0.11435481E-06
 -0.93419786E-07 -0.71890888E-07 -0.49973987E-07 -0.27875885E-07 -0.58024075E-08
  0.16043472E-07  0.37463465E-07  0.58265723E-07  0.78266526E-07  0.97291856E-07
  0.11517888E-06  0.13177731E-06  0.14695060E-06  0.16057706E-06  0.17255075E-06
  0.18278227E-06  0.19119940E-06  0.19774748E-06  0.20238977E-06  0.20510750E-06
  0.20589983E-06  0.20478366E-06  0.20179321E-06  0.19697953E-06  0.19040978E-06
  0.18216644E-06  0.17234636E-06  0.16105966E-06  0.14842858E-06  0.13458621E-06
  0.11967510E-06  0.10384588E-06  0.87255720E-07  0.70066852E-07  0.52444992E-07
  0.34557780E-07  0.16573217E-07 -0.13418833E-08 -0.19023412E-07 -0.36311441E-07
 -0.53051637E-07 -0.69096612E-07 -0.84307192E-07 -0.98553593E-07 -0.11171650E-06
 -0.12368802E-06 -0.13437257E-06 -0.14368754E-06 -0.15156397E-06 -0.15794695E-06
 -0.16279599E-06 -0.16608519E-06 -0.16780332E-06 -0.16795374E-06 -0.16655418E-06
 -0.16363641E-06 -0.15924578E-06 -0.15344061E-06 -0.14629156E-06 -0.13788074E-06
 -0.12830091E-06 -0.11765442E-06 -0.10605221E-06 -0.93612641E-07 -0.80460370E-07
 -0.66725079E-07 -0.52540249E-07 -0.38041883E-07 -0.23367227E-07 -0.86534897E-08
  0.59634102E-08  0.20350082E-07  0.34376856E-07  0.47918929E-07  0.60857454E-07
  0.73080559E-07  0.84484290E-07  0.94973472E-07  0.10446248E-06  0.11287590E-06
  0.12014912E-06  0.12622878E-06  0.13107313E-06  0.13465226E-06  0.13694826E-06
  0.13795525E-06  0.13767923E-06  0.13613796E-06  0.13336061E-06  0.12938735E-06
  0.12426891E-06  0.11806591E-06  0.11084823E-06  0.10269427E-06  0.93690111E-07
  0.83928612E-07  0.73508519E-07  0.62533465E-07  0.51110966E-07  0.39351387E-07
  0.27366895E-07  0.15270408E-07  0.31745499E-08 -0.88093808E-08 -0.20572418E-07
 -0.32008901E-07 -0.43017404E-07 -0.53501624E-07 -0.63371198E-07 -0.72542466E-07
 -0.80939164E-07 -0.88493034E-07 -0.95144361E-07 -0.10084242E-06 -0.10554583E-06
 -0.10922284E-06 -0.11185150E-06 -0.11341976E-06 -0.11392543E-06 -0.11337614E-06
 -0.11178910E-06 -0.10919089E-06 -0.10561705E-06 -0.10111170E-06 -0.95726979E-07
 -0.89522545E-07 -0.82564882E-07 -0.74926634E-07 -0.66685869E-07 -0.57925292E-07
 -0.48731437E-07 -0.39193830E-07 -0.29404127E-07 -0.19455254E-07 -0.94405348E-08
  0.54716708E-09  0.10416298E-07  0.20077437E-07  0.29444096E-07  0.38433478E-07
  0.46967195E-07  0.54971937E-07  0.62380088E-07  0.69130283E-07  0.75167897E-07
  0.80445473E-07  0.84923074E-07  0.88568565E-07  0.91357820E-07  0.93274850E-07
  0.94311863E-07  0.94469236E-07  0.93755425E-07  0.92186792E-07  0.89787366E-07
  0.86588541E-07  0.82628696E-07  0.77952771E-07  0.72611780E-07  0.66662270E-07
  0.60165745E-07  0.53188044E-07  0.45798686E-07  0.38070195E-07  0.30077396E-07
  0.21896709E-07  0.13605423E-07  0.52809805E-08 -0.29997327E-08 -0.11161091E-07
 -0.19129405E-07 -0.26833580E-07 -0.34205734E-07 -0.41181791E-07 -0.47702020E-07
 -0.53711540E-07 -0.59160767E-07 -0.64005809E-07 -0.68208810E-07 -0.71738223E-07
 -0.74569038E-07 -0.76682933E-07 -0.78068370E-07 -0.78720626E-07 -0.78641760E-07
 -0.77840522E-07 -0.76332197E-07 -0.74138391E-07 -0.71286768E-07 -0.67810726E-07
 -0.63749028E-07 -0.59145390E-07 -0.54048021E-07 -0.48509137E-07 -0.42584437E-07
 -0.36332549E-07 -0.29814469E-07 -0.23092968E-07 -0.16232000E-07 -0.92961049E-08
 -0.23498061E-08  0.45429780E-08  0.11319515E-07  0.17918819E-07  0.24282195E-07
  0.30353746E-07  0.36080859E-07  0.41414654E-07  0.46310387E-07  0.50727815E-07
  0.54631524E-07  0.57991191E-07  0.60781814E-07  0.62983882E-07  0.64583496E-07
  0.65572430E-07  0.65948153E-07  0.65713787E-07  0.64878017E-07  0.63454953E-07
  0.61463942E-07  0.58929334E-07  0.55880204E-07  0.52350040E-07  0.48376380E-07
  0.44000433E-07  0.39266657E-07  0.34222318E-07  0.28917026E-07  0.23402259E-07
  0.17730866E-07  0.11956570E-07  0.61334679E-08  0.31552917E-09 -0.54438974E-08
 -0.11092566E-07 -0.16579799E-07 -0.21856939E-07 -0.26877768E-07 -0.31598909E-07
 -0.35980192E-07 -0.39984988E-07 -0.43580506E-07 -0.46738056E-07 -0.49433265E-07
   19.8421228800787      T
 Non local Part
           0           2   1.02776980335195     
   11.8805987233866        13.6046033764996        13.6046033764996     
   15.5797554505415     
 Reciprocal Space Part
  0.18367783E+03  0.18228668E+03  0.17813564E+03  0.17129158E+03  0.16186452E+03
  0.15000560E+03  0.13590421E+03  0.11978447E+03  0.10190101E+03  0.82534314E+02
  0.61985492E+02  0.40570800E+02  0.18615895E+02 -0.35500017E+01 -0.25599941E+02
 -0.47214949E+02 -0.68089498E+02 -0.87936618E+02 -0.10649258E+03 -0.12352103E+03
 -0.13881655E+03 -0.15220749E+03 -0.16355819E+03 -0.17277036E+03 -0.17978378E+03
 -0.18457620E+03 -0.18716257E+03 -0.18759355E+03 -0.18595334E+03 -0.18235697E+03
 -0.17694709E+03 -0.16989031E+03 -0.16137318E+03 -0.15159795E+03 -0.14077822E+03
 -0.12913442E+03 -0.11688949E+03 -0.10426454E+03 -0.91474835E+02 -0.78726008E+02
 -0.66210689E+02 -0.54105513E+02 -0.42568613E+02 -0.31737605E+02 -0.21728107E+02
 -0.12632770E+02 -0.45208534E+01  0.25616974E+01  0.85916878E+01  0.13567659E+02
  0.17508468E+02  0.20451519E+02  0.22450700E+02  0.23574083E+02  0.23901460E+02
  0.23521781E+02  0.22530545E+02  0.21027219E+02  0.19112746E+02  0.16887182E+02
  0.14447514E+02  0.11885711E+02  0.92870257E+01  0.67285753E+01  0.42782242E+01
  0.19937696E+01 -0.77567206E-01 -0.18993515E+01 -0.34458632E+01 -0.47017624E+01
 -0.56615196E+01 -0.63286411E+01 -0.67147235E+01 -0.68383740E+01 -0.67240353E+01
 -0.64007504E+01 -0.59009072E+01 -0.52589957E+01 -0.45104125E+01 -0.36903394E+01
 -0.28327229E+01 -0.19693752E+01 -0.11292117E+01 -0.33763724E+00  0.38391323E+00
  0.10182785E+01  0.15527215E+01  0.19789348E+01  0.22929107E+01  0.24946917E+01
  0.25880159E+01  0.25798781E+01  0.24800242E+01  0.23004013E+01  0.20545813E+01
  0.17571807E+01  0.14232924E+01  0.10679470E+01  0.70561940E+00  0.34979155E+00
 Real Space Part
 -0.98604459E+03 -0.98555920E+03 -0.98410352E+03 -0.98167896E+03 -0.97828793E+03
 -0.97393379E+03 -0.96862086E+03 -0.96235445E+03 -0.95514087E+03 -0.94698742E+03
 -0.93790244E+03 -0.92789529E+03 -0.91697640E+03 -0.90515727E+03 -0.89245053E+03
 -0.87886992E+03 -0.86443032E+03 -0.84914782E+03 -0.83303973E+03 -0.81612459E+03
 -0.79842223E+03 -0.77995381E+03 -0.76074182E+03 -0.74081017E+03 -0.72018419E+03
 -0.69889068E+03 -0.67695795E+03 -0.65441585E+03 -0.63129584E+03 -0.60763099E+03
 -0.58345604E+03 -0.55880743E+03 -0.53372333E+03 -0.50824368E+03 -0.48241020E+03
 -0.45626641E+03 -0.42985768E+03 -0.40323118E+03 -0.37643596E+03 -0.34952286E+03
 -0.32254454E+03 -0.29555546E+03 -0.26861179E+03 -0.24177140E+03 -0.21509377E+03
 -0.18863989E+03 -0.16247217E+03 -0.13665428E+03 -0.11125102E+03 -0.86328116E+02
 -0.61952034E+02 -0.38189728E+02 -0.15108373E+02  0.72249299E+01  0.28743489E+02
  0.49381387E+02  0.69073887E+02  0.87757861E+02  0.10537226E+03  0.12185864E+03
  0.13716164E+03  0.15122960E+03  0.16401512E+03  0.17547566E+03  0.18557419E+03
  0.19427977E+03  0.20156822E+03  0.20742271E+03  0.21183437E+03  0.21480285E+03
  0.21633686E+03  0.21645464E+03  0.21518435E+03  0.21256442E+03  0.20864376E+03
  0.20348190E+03  0.19714901E+03  0.18972576E+03  0.18130312E+03  0.17198193E+03
  0.16187236E+03  0.15109327E+03  0.13977136E+03  0.12804024E+03  0.11603928E+03
  0.10391251E+03  0.91807174E+02  0.79872498E+02  0.68258115E+02  0.57112642E+02
  0.46582157E+02  0.36808697E+02  0.27928811E+02  0.20072156E+02  0.13360139E+02
  0.79049148E+01  0.38081036E+01  0.11542301E+01  0.50105581E-01  0.00000000E+00
 Reciprocal Space Part
 -0.15516979E+03 -0.15396780E+03 -0.15038127E+03 -0.14446813E+03 -0.13632375E+03
 -0.12607910E+03 -0.11389829E+03 -0.99975533E+02 -0.84531479E+02 -0.67809138E+02
 -0.50069389E+02 -0.31586205E+02 -0.12641674E+02  0.64790645E+01  0.25492883E+02
  0.44123612E+02  0.62106778E+02  0.79194046E+02  0.95157269E+02  0.10979208E+03
  0.12292097E+03  0.13439574E+03  0.14409943E+03  0.15194750E+03  0.15788844E+03
  0.16190369E+03  0.16400692E+03  0.16424277E+03  0.16268495E+03  0.15943391E+03
  0.15461399E+03  0.14837027E+03  0.14086509E+03  0.13227436E+03  0.12278375E+03
  0.11258483E+03  0.10187123E+03  0.90834975E+02  0.79662911E+02  0.68533484E+02
  0.57613778E+02  0.47056936E+02  0.36999987E+02  0.27562104E+02  0.18843316E+02
  0.10923683E+02  0.38629249E+01 -0.22995008E+01 -0.75439032E+01 -0.11869471E+02
 -0.15293034E+02 -0.17847521E+02 -0.19580161E+02 -0.20550486E+02 -0.20828180E+02
 -0.20490857E+02 -0.19621786E+02 -0.18307654E+02 -0.16636395E+02 -0.14695135E+02
 -0.12568305E+02 -0.10335940E+02 -0.80722068E+01 -0.58441773E+01 -0.37108545E+01
 -0.17224699E+01  0.79956465E-01  0.16647959E+01  0.30097456E+01  0.41015353E+01
  0.49354291E+01  0.55145492E+01  0.58490524E+01  0.59551886E+01  0.58542777E+01
  0.55716347E+01  0.51354762E+01  0.45758400E+01  0.39235441E+01  0.32092123E+01
  0.24623862E+01  0.17107441E+01  0.97943840E+00  0.29056217E+00 -0.33724939E+00
 -0.88908229E+00 -0.13538739E+01 -0.17244167E+01 -0.19972445E+01 -0.21724146E+01
 -0.22531988E+01 -0.22457007E+01 -0.21584157E+01 -0.20017519E+01 -0.17875289E+01
 -0.15284724E+01 -0.12377198E+01 -0.92835237E+00 -0.61296509E+00 -0.30328701E+00
 Real Space Part
  0.86477843E+03  0.86435419E+03  0.86308189E+03  0.86096278E+03  0.85799896E+03
  0.85419334E+03  0.84954972E+03  0.84407274E+03  0.83776789E+03  0.83064157E+03
  0.82270104E+03  0.81395450E+03  0.80441105E+03  0.79408073E+03  0.78297458E+03
  0.77110458E+03  0.75848375E+03  0.74512613E+03  0.73104683E+03  0.71626204E+03
  0.70078909E+03  0.68464644E+03  0.66785373E+03  0.65043185E+03  0.63240289E+03
  0.61379025E+03  0.59461866E+03  0.57491417E+03  0.55470424E+03  0.53401774E+03
  0.51288499E+03  0.49133779E+03  0.46940947E+03  0.44713486E+03  0.42455039E+03
  0.40169405E+03  0.37860541E+03  0.35532565E+03  0.33189756E+03  0.30836551E+03
  0.28477546E+03  0.26117491E+03  0.23761290E+03  0.21413991E+03  0.19080785E+03
  0.16766992E+03  0.14478060E+03  0.12219543E+03  0.99970952E+02  0.78164533E+02
  0.56834165E+02  0.36038275E+02  0.15835484E+02 -0.37156467E+01 -0.22556912E+02
 -0.40630781E+02 -0.57880743E+02 -0.74251692E+02 -0.89690333E+02 -0.10414562E+03
 -0.11756922E+03 -0.12991601E+03 -0.14114457E+03 -0.15121771E+03 -0.16010305E+03
 -0.16777352E+03 -0.17420791E+03 -0.17939144E+03 -0.18331627E+03 -0.18598197E+03
 -0.18739599E+03 -0.18757412E+03 -0.18654077E+03 -0.18432931E+03 -0.18098222E+03
 -0.17655129E+03 -0.17109754E+03 -0.16469116E+03 -0.15741133E+03 -0.14934581E+03
 -0.14059053E+03 -0.13124898E+03 -0.12143150E+03 -0.11125445E+03 -0.10083924E+03
 -0.90311330E+02 -0.79799014E+02 -0.69432302E+02 -0.59341588E+02 -0.49656389E+02
 -0.40504018E+02 -0.32008287E+02 -0.24288233E+02 -0.17456900E+02 -0.11620158E+02
 -0.68758220E+01 -0.33125398E+01 -0.10040807E+01 -0.43583489E-01  0.00000000E+00
 Non local Part
           1           2   1.02776980335195     
   3.74036184108789        5.14825221701695        5.14825221701695     
   7.10188250728847     
 Reciprocal Space Part
  0.00000000E+00  0.47959264E+01  0.94787973E+01  0.13937909E+02  0.18067209E+02
  0.21767493E+02  0.24948455E+02  0.27530537E+02  0.29446547E+02  0.30643011E+02
  0.31081218E+02  0.30737954E+02  0.29605902E+02  0.27693699E+02  0.25025657E+02
  0.21641152E+02  0.17593707E+02  0.12949777E+02  0.77872811E+01  0.21939027E+01
 -0.37347864E+01 -0.98973503E+01 -0.16188605E+02 -0.22501782E+02 -0.28730692E+02
 -0.34771839E+02 -0.40526441E+02 -0.45902318E+02 -0.50815597E+02 -0.55192219E+02
 -0.58969196E+02 -0.62095618E+02 -0.64533382E+02 -0.66257625E+02 -0.67256885E+02
 -0.67532961E+02 -0.67100507E+02 -0.65986370E+02 -0.64228681E+02 -0.61875747E+02
 -0.58984758E+02 -0.55620351E+02 -0.51853065E+02 -0.47757725E+02 -0.43411792E+02
 -0.38893727E+02 -0.34281383E+02 -0.29650482E+02 -0.25073205E+02 -0.20616902E+02
 -0.16342975E+02 -0.12305935E+02 -0.85526466E+01 -0.51217825E+01 -0.20434739E+01
  0.66082777E+00  0.29782950E+01  0.49044792E+01  0.64428929E+01  0.76044369E+01
  0.84066933E+01  0.88731076E+01  0.90320849E+01  0.89160266E+01  0.85603325E+01
  0.80023954E+01  0.72806116E+01  0.64334317E+01  0.54984714E+01  0.45117002E+01
  0.35067261E+01  0.25141842E+01  0.15612421E+01  0.67122480E+00 -0.13663774E+00
 -0.84734199E+00 -0.14501253E+01 -0.19383709E+01 -0.23094127E+01 -0.25642521E+01
 -0.27071992E+01 -0.27454544E+01 -0.26886445E+01 -0.25483289E+01 -0.23374927E+01
 -0.20700399E+01 -0.17603015E+01 -0.14225710E+01 -0.10706787E+01 -0.71761309E+00
 -0.37519810E+00 -0.53830206E-01  0.23772056E+00  0.49244481E+00  0.70516389E+00
  0.87253852E+00  0.99302011E+00  0.10667505E+01  0.10954167E+01  0.10820686E+01
 Real Space Part
  0.00000000E+00 -0.14773620E+02 -0.29504012E+02 -0.44148064E+02 -0.58662887E+02
 -0.73005935E+02 -0.87135112E+02 -0.10100889E+03 -0.11458641E+03 -0.12782761E+03
 -0.14069331E+03 -0.15314536E+03 -0.16514671E+03 -0.17666152E+03 -0.18765531E+03
 -0.19809499E+03 -0.20794905E+03 -0.21718757E+03 -0.22578241E+03 -0.23370722E+03
 -0.24093761E+03 -0.24745120E+03 -0.25322772E+03 -0.25824911E+03 -0.26249959E+03
 -0.26596575E+03 -0.26863664E+03 -0.27050382E+03 -0.27156148E+03 -0.27180644E+03
 -0.27123829E+03 -0.26985939E+03 -0.26767496E+03 -0.26469312E+03 -0.26092494E+03
 -0.25638446E+03 -0.25108873E+03 -0.24505784E+03 -0.23831492E+03 -0.23088616E+03
 -0.22280077E+03 -0.21409102E+03 -0.20479213E+03 -0.19494231E+03 -0.18458264E+03
 -0.17375701E+03 -0.16251204E+03 -0.15089695E+03 -0.13896343E+03 -0.12676550E+03
 -0.11435932E+03 -0.10180298E+03 -0.89156272E+02 -0.76480457E+02 -0.63837951E+02
 -0.51292020E+02 -0.38906444E+02 -0.26745131E+02 -0.14871719E+02 -0.33491466E+01
  0.77608153E+01  0.18398045E+02  0.28504584E+02  0.38025162E+02  0.46907750E+02
  0.55104110E+02  0.62570366E+02  0.69267555E+02  0.75162185E+02  0.80226765E+02
  0.84440309E+02  0.87788809E+02  0.90265653E+02  0.91871984E+02  0.92616996E+02
  0.92518158E+02  0.91601327E+02  0.89900771E+02  0.87459124E+02  0.84327150E+02
  0.80563474E+02  0.76234154E+02  0.71412113E+02  0.66176534E+02  0.60612039E+02
  0.54807883E+02  0.48856943E+02  0.42854743E+02  0.36898318E+02  0.31085109E+02
  0.25511797E+02  0.20273132E+02  0.15460800E+02  0.11162301E+02  0.74598806E+01
  0.44296287E+01  0.21405098E+01  0.65103605E+00  0.24478301E-01  0.00000000E+00
 Reciprocal Space Part
  0.00000000E+00 -0.32959993E+01 -0.65108327E+01 -0.95650392E+01 -0.12382530E+02
 -0.14892180E+02 -0.17029313E+02 -0.18737042E+02 -0.19967441E+02 -0.20682518E+02
 -0.20854973E+02 -0.20468725E+02 -0.19519194E+02 -0.18013337E+02 -0.15969442E+02
 -0.13416673E+02 -0.10394401E+02 -0.69513115E+01 -0.31443350E+01  0.96259400E+00
  0.52999060E+01  0.97938701E+01  0.14368135E+02  0.18945301E+02  0.23448498E+02
  0.27802913E+02  0.31937265E+02  0.35785167E+02  0.39286363E+02  0.42387814E+02
  0.45044611E+02  0.47220688E+02  0.48889347E+02  0.50033563E+02  0.50646085E+02
  0.50729324E+02  0.50295045E+02  0.49363869E+02  0.47964603E+02  0.46133420E+02
  0.43912906E+02  0.41351006E+02  0.38499885E+02  0.35414752E+02  0.32152643E+02
  0.28771228E+02  0.25327640E+02  0.21877359E+02  0.18473184E+02  0.15164300E+02
  0.11995462E+02  0.90063155E+01  0.62308486E+01  0.36970026E+01  0.14264260E+01
 -0.56561927E+00 -0.22702077E+01 -0.36845619E+01 -0.48117386E+01 -0.56602014E+01
 -0.62432953E+01 -0.65786419E+01 -0.66874712E+01 -0.65939116E+01 -0.63242545E+01
 -0.59062152E+01 -0.53682061E+01 -0.47386395E+01 -0.40452758E+01 -0.33146305E+01
 -0.25714498E+01 -0.18382658E+01 -0.11350353E+01 -0.47886880E+00  0.11615214E+00
  0.63906713E+00  0.10820441E+01  0.14403059E+01  0.17119835E+01  0.18979047E+01
  0.20013281E+01  0.20276324E+01  0.19839743E+01  0.18789235E+01  0.17220886E+01
  0.15237444E+01  0.12944694E+01  0.10448044E+01  0.78493958E+00  0.52443680E+00
  0.27199295E+00  0.35247562E-01 -0.17936245E+00 -0.36670036E+00 -0.52298000E+00
 -0.64577090E+00 -0.73396136E+00 -0.78768363E+00 -0.80820610E+00 -0.79779839E+00
 Real Space Part
  0.00000000E+00  0.11109148E+02  0.22186010E+02  0.33198385E+02  0.44114240E+02
  0.54901797E+02  0.65529612E+02  0.75966664E+02  0.86182436E+02  0.96146995E+02
  0.10583108E+03  0.11520617E+03  0.12424460E+03  0.13291958E+03  0.14120534E+03
  0.14907715E+03  0.15651144E+03  0.16348586E+03  0.16997934E+03  0.17597218E+03
  0.18144613E+03  0.18638442E+03  0.19077187E+03  0.19459495E+03  0.19784180E+03
  0.20050236E+03  0.20256837E+03  0.20403347E+03  0.20489322E+03  0.20514518E+03
  0.20478894E+03  0.20382617E+03  0.20226066E+03  0.20009836E+03  0.19734742E+03
  0.19401819E+03  0.19012329E+03  0.18567756E+03  0.18069815E+03  0.17520444E+03
  0.16921810E+03  0.16276304E+03  0.15586542E+03  0.14855357E+03  0.14085798E+03
  0.13281125E+03  0.12444800E+03  0.11580478E+03  0.10691999E+03  0.97833780E+02
  0.88587875E+02  0.79225461E+02  0.69790995E+02  0.60330026E+02  0.50888978E+02
  0.41514918E+02  0.32255306E+02  0.23157711E+02  0.14269515E+02  0.56375941E+01
 -0.26920256E+01 -0.10674528E+02 -0.18266685E+02 -0.25427249E+02 -0.32117361E+02
 -0.38300959E+02 -0.43945199E+02 -0.49020872E+02 -0.53502807E+02 -0.57370273E+02
 -0.60607351E+02 -0.63203287E+02 -0.65152801E+02 -0.66456355E+02 -0.67120379E+02
 -0.67157432E+02 -0.66586292E+02 -0.65431977E+02 -0.63725709E+02 -0.61504748E+02
 -0.58812189E+02 -0.55696653E+02 -0.52211866E+02 -0.48416215E+02 -0.44372138E+02
 -0.40145538E+02 -0.35805024E+02 -0.31421203E+02 -0.27065831E+02 -0.22811001E+02
 -0.18728276E+02 -0.14887826E+02 -0.11357585E+02 -0.82024251E+01 -0.54833584E+01
 -0.32568727E+01 -0.15742093E+01 -0.47891348E+00 -0.17998452E-01  0.00000000E+00
 PAW radial sets
         375  0.969806103663617     
(5E20.12)                                
 augmentation charges (non sperical)
 -0.318674216239E+00 -0.366431816410E+00 -0.142540383087E+00 -0.194025298181E+00 -0.366431816410E+00
 -0.421360529380E+00 -0.163523735130E+00 -0.222613464736E+00 -0.142540383087E+00 -0.163523735130E+00
 -0.518289995658E-01 -0.693499238774E-01 -0.194025298181E+00 -0.222613464736E+00 -0.693499238774E-01
 -0.927982218667E-01
 uccopancies in atom
  0.200000000063E+01  0.000000000000E+00  0.000000000000E+00  0.000000000000E+00  0.000000000000E+00
  0.000000000000E+00  0.000000000000E+00  0.000000000000E+00  0.000000000000E+00  0.000000000000E+00
  0.133333333263E+01  0.000000000000E+00  0.000000000000E+00  0.000000000000E+00  0.000000000000E+00
  0.000000000000E+00
 grid
  0.369236193613E-04  0.381242833498E-04  0.393639899359E-04  0.406440086874E-04  0.419656504555E-04
  0.433302687169E-04  0.447392609597E-04  0.461940701153E-04  0.476961860354E-04  0.492471470178E-04
  0.508485413822E-04  0.525020090964E-04  0.542092434557E-04  0.559719928174E-04  0.577920623907E-04
  0.596713160861E-04  0.616116784235E-04  0.636151365035E-04  0.656837420423E-04  0.678196134726E-04
  0.700249381135E-04  0.723019744101E-04  0.746530542465E-04  0.770805853340E-04  0.795870536765E-04
  0.821750261167E-04  0.848471529644E-04  0.876061707110E-04  0.904549048319E-04  0.933962726796E-04
  0.964332864719E-04  0.995690563764E-04  0.102806793695E-03  0.106149814155E-03  0.109601541300E-03
  0.113165510000E-03  0.116845370072E-03  0.120644890013E-03  0.124567960864E-03  0.128618600193E-03
  0.132800956207E-03  0.137119312005E-03  0.141578089960E-03  0.146181856252E-03  0.150935325538E-03
  0.155843365787E-03  0.160911003260E-03  0.166143427663E-03  0.171545997453E-03  0.177124245335E-03
  0.182883883923E-03  0.188830811588E-03  0.194971118506E-03  0.201311092886E-03  0.207857227417E-03
  0.214616225912E-03  0.221595010177E-03  0.228800727096E-03  0.236240755953E-03  0.243922715988E-03
  0.251854474199E-03  0.260044153400E-03  0.268500140538E-03  0.277231095282E-03  0.286245958894E-03
  0.295553963381E-03  0.305164640953E-03  0.315087833784E-03  0.325333704091E-03  0.335912744540E-03
  0.346835788992E-03  0.358114023601E-03  0.369758998263E-03  0.381782638451E-03  0.394197257422E-03
  0.407015568831E-03  0.420250699750E-03  0.433916204109E-03  0.448026076578E-03  0.462594766900E-03
  0.477637194687E-03  0.493168764699E-03  0.509205382621E-03  0.525763471352E-03  0.542859987821E-03
  0.560512440355E-03  0.578738906608E-03  0.597558052073E-03  0.616989149202E-03  0.637052097134E-03
  0.657767442082E-03  0.679156398370E-03  0.701240870157E-03  0.724043473872E-03  0.747587561375E-03
  0.771897243868E-03  0.796997416591E-03  0.822913784313E-03  0.849672887660E-03  0.877302130292E-03
  0.905829806968E-03  0.935285132521E-03  0.965698271780E-03  0.997100370456E-03  0.102952358704E-02
  0.106300112575E-02  0.109756727049E-02  0.113325742003E-02  0.117010812420E-02  0.120815712134E-02
  0.124744337694E-02  0.128800712357E-02  0.132988990204E-02  0.137313460398E-02  0.141778551575E-02
  0.146388836378E-02  0.151149036142E-02  0.156064025727E-02  0.161138838511E-02  0.166378671547E-02
  0.171788890882E-02  0.177375037053E-02  0.183142830761E-02  0.189098178732E-02  0.195247179762E-02
  0.201596130966E-02  0.208151534224E-02  0.214920102842E-02  0.221908768426E-02  0.229124687981E-02
  0.236575251238E-02  0.244268088225E-02  0.252211077080E-02  0.260412352117E-02  0.268880312158E-02
  0.277623629135E-02  0.286651256969E-02  0.295972440738E-02  0.305596726150E-02  0.315533969313E-02
  0.325794346835E-02  0.336388366236E-02  0.347326876720E-02  0.358621080276E-02  0.370282543157E-02
  0.382323207718E-02  0.394755404653E-02  0.407591865618E-02  0.420845736271E-02  0.434530589733E-02
  0.448660440490E-02  0.463249758743E-02  0.478313485231E-02  0.493867046524E-02  0.509926370830E-02
  0.526507904298E-02  0.543628627870E-02  0.561306074660E-02  0.579558347921E-02  0.598404139574E-02
  0.617862749357E-02  0.637954104587E-02  0.658698780568E-02  0.680118021659E-02  0.702233763037E-02
  0.725068653152E-02  0.748646076927E-02  0.772990179705E-02  0.798125891975E-02  0.824078954901E-02
  0.850875946689E-02  0.878544309799E-02  0.907112379054E-02  0.936609410652E-02  0.967065612132E-02
  0.998512173305E-02  0.103098129820E-01  0.106450623803E-01  0.109912132527E-01  0.113486200880E-01
  0.117176489019E-01  0.120986776122E-01  0.124920964257E-01  0.128983082375E-01  0.133177290440E-01
  0.137507883689E-01  0.141979297026E-01  0.146596109570E-01  0.151363049341E-01  0.156284998101E-01
  0.161366996356E-01  0.166614248516E-01  0.172032128226E-01  0.177626183868E-01  0.183402144244E-01
  0.189365924443E-01  0.195523631895E-01  0.201881572633E-01  0.208446257742E-01  0.215224410034E-01
  0.222222970929E-01  0.229449107565E-01  0.236910220137E-01  0.244613949478E-01  0.252568184877E-01
  0.260781072169E-01  0.269261022067E-01  0.278016718780E-01  0.287057128908E-01  0.296391510620E-01
  0.306029423139E-01  0.315980736530E-01  0.326255641806E-01  0.336864661369E-01  0.347818659783E-01
  0.359128854897E-01  0.370806829342E-01  0.382864542382E-01  0.395314342170E-01  0.408168978389E-01
  0.421441615309E-01  0.435145845270E-01  0.449295702603E-01  0.463905677995E-01  0.478990733341E-01
  0.494566317053E-01  0.510648379892E-01  0.527253391294E-01  0.544398356243E-01  0.562100832680E-01
  0.580378949488E-01  0.599251425057E-01  0.618737586451E-01  0.638857389201E-01  0.659631437743E-01
  0.681081006519E-01  0.703228061762E-01  0.726095283991E-01  0.749706091240E-01  0.774084663040E-01
  0.799255965177E-01  0.825245775264E-01  0.852080709140E-01  0.879788248119E-01  0.908396767145E-01
  0.937935563840E-01  0.968434888513E-01  0.999925975138E-01  0.103244107334E+00  0.106601348142E+00
  0.110067758046E+00  0.113646886952E+00  0.117342400201E+00  0.121158082322E+00  0.125097840907E+00
  0.129165710612E+00  0.133365857292E+00  0.137702582264E+00  0.142180326714E+00  0.146803676242E+00
  0.151577365563E+00  0.156506283352E+00  0.161595477251E+00  0.166850159040E+00  0.172275709971E+00
  0.177877686284E+00  0.183661824892E+00  0.189634049257E+00  0.195800475460E+00  0.202167418459E+00
  0.208741398561E+00  0.215529148097E+00  0.222537618313E+00  0.229773986497E+00  0.237245663322E+00
  0.244960300438E+00  0.252925798307E+00  0.261150314295E+00  0.269642271026E+00  0.278410365004E+00
  0.287463575525E+00  0.296811173867E+00  0.306462732788E+00  0.316428136328E+00  0.326717589929E+00
  0.337341630893E+00  0.348311139165E+00  0.359637348481E+00  0.371331857868E+00  0.383406643526E+00
  0.395874071091E+00  0.408746908298E+00  0.422038338057E+00  0.435761971954E+00  0.449931864189E+00
  0.464562525969E+00  0.479668940372E+00  0.495266577685E+00  0.511371411253E+00  0.527999933831E+00
  0.545169174480E+00  0.562896716004E+00  0.581200712952E+00  0.600099910219E+00  0.619613662233E+00
  0.639761952782E+00  0.660565415476E+00  0.682045354878E+00  0.704223768324E+00  0.727123368446E+00
  0.750767606437E+00  0.775180696062E+00  0.800387638459E+00  0.826414247738E+00  0.853287177424E+00
  0.881033947742E+00  0.909682973812E+00  0.939263594739E+00  0.969806103664E+00  0.100134177878E+01
  0.103390291539E+01  0.106752285892E+01  0.110223603915E+01  0.113807800540E+01  0.117508546298E+01
  0.121329631076E+01  0.125274967998E+01  0.129348597434E+01  0.133554691138E+01  0.137897556515E+01
  0.142381641041E+01  0.147011536809E+01  0.151791985237E+01  0.156727881922E+01  0.161824281654E+01
  0.167086403591E+01  0.172519636606E+01  0.178129544805E+01  0.183921873223E+01  0.189902553711E+01
  0.196077711009E+01  0.202453669017E+01  0.209036957273E+01  0.215834317641E+01  0.222852711209E+01
  0.230099325428E+01  0.237581581464E+01  0.245307141799E+01  0.253283918084E+01  0.261520079234E+01
  0.270024059798E+01  0.278804568595E+01  0.287870597634E+01  0.297231431319E+01  0.306896655964E+01
  0.316876169602E+01  0.327180192129E+01  0.337819275762E+01  0.348804315854E+01  0.360146562045E+01
  0.371857629787E+01  0.383949512236E+01  0.396434592537E+01  0.409325656503E+01  0.422635905710E+01
  0.436378971016E+01  0.450568926521E+01  0.465220303980E+01  0.480348107682E+01  0.495967829822E+01
  0.512095466359E+01  0.528747533404E+01  0.545941084126E+01  0.563693726225E+01  0.582023639958E+01
 aepotential
  0.224582616114E+05  0.223544190646E+05  0.222109534541E+05  0.220288330229E+05  0.218094146781E+05
  0.215542019430E+05  0.212651470836E+05  0.209441434095E+05  0.205935030330E+05  0.202155686830E+05
  0.198127946722E+05  0.193878411044E+05  0.189432621271E+05  0.184817375804E+05  0.180059238210E+05
  0.175184529507E+05  0.170218449932E+05  0.165186113663E+05  0.160111158128E+05  0.155015938210E+05
  0.149921594028E+05  0.144848033554E+05  0.139813033483E+05  0.134833263185E+05  0.129923496540E+05
  0.125096891458E+05  0.120365046881E+05  0.115737891692E+05  0.111223877394E+05  0.106829992007E+05
  0.102561814750E+05  0.984236918122E+04  0.944187450461E+04  0.905490294140E+04  0.868156132149E+04
  0.832186852097E+04  0.797576539789E+04  0.764312443447E+04  0.732375897666E+04  0.701743192251E+04
  0.672386344142E+04  0.644273943381E+04  0.617371729275E+04  0.591643257351E+04  0.567050446145E+04
  0.543554074645E+04  0.521114237226E+04  0.499690623490E+04  0.479243119771E+04  0.459731580569E+04
  0.441116584915E+04  0.423359416998E+04  0.406422102063E+04  0.390267801687E+04  0.374860541199E+04
  0.360165791732E+04  0.346150037920E+04  0.332781051355E+04  0.320027922507E+04  0.307860921552E+04
  0.296251715286E+04  0.285173131282E+04  0.274599157757E+04  0.264505217145E+04  0.254867626965E+04
  0.245664112929E+04  0.236873130397E+04  0.228474714910E+04  0.220449274556E+04  0.212778613414E+04
  0.205445746675E+04  0.198433555515E+04  0.191726924706E+04  0.185310751161E+04  0.179171196744E+04
  0.173294637319E+04  0.167668743870E+04  0.162281213235E+04  0.157120921922E+04  0.152177000784E+04
  0.147439121513E+04  0.142897804432E+04  0.138543674456E+04  0.134368049331E+04  0.130362653916E+04
  0.126519642417E+04  0.122831510569E+04  0.119291245486E+04  0.115892042157E+04  0.112627573063E+04
  0.109491729446E+04  0.106478770604E+04  0.103583202109E+04  0.100799805089E+04  0.981236393900E+03
  0.955499708361E+03  0.930743379391E+03  0.906924483825E+03  0.884002460603E+03  0.861938666783E+03
  0.840696095606E+03  0.820239696410E+03  0.800536068637E+03  0.781552922370E+03  0.763260288480E+03
  0.745628812120E+03  0.728630843653E+03  0.712240005281E+03  0.696430795620E+03  0.681179309890E+03
  0.666462469975E+03  0.652258042018E+03  0.638545150035E+03  0.625303558355E+03  0.612513977096E+03
  0.600157983982E+03  0.588217866536E+03  0.576676751447E+03  0.565518401924E+03  0.554727254546E+03
  0.544288495101E+03  0.534187750938E+03  0.524411393213E+03  0.514946240367E+03  0.505779658568E+03
  0.496899536973E+03  0.488294233228E+03  0.479952546030E+03  0.471863716026E+03  0.464017378110E+03
  0.456403588141E+03  0.449012744120E+03  0.441835622538E+03  0.434863316131E+03  0.428087266090E+03
  0.421499198185E+03  0.415091142360E+03  0.408855407099E+03  0.402784560134E+03  0.396871438862E+03
  0.391109105954E+03  0.385490855254E+03  0.380010237724E+03  0.374660950796E+03  0.369436948380E+03
  0.364332342472E+03  0.359341472056E+03  0.354458779305E+03  0.349678944248E+03  0.344996782182E+03
  0.340407235135E+03  0.335905424277E+03  0.331486607996E+03  0.327146162810E+03  0.322879599404E+03
  0.318682561487E+03  0.314550795664E+03  0.310480173991E+03  0.306466669440E+03  0.302506361140E+03
  0.298595430347E+03  0.294730154072E+03  0.290906902291E+03  0.287122134879E+03  0.283372398553E+03
  0.279654326883E+03  0.275964632067E+03  0.272300107673E+03  0.268657624772E+03  0.265034129621E+03
  0.261426642495E+03  0.257832257890E+03  0.254248139858E+03  0.250671525339E+03  0.247099719855E+03
  0.243530098461E+03  0.239960107170E+03  0.236387257970E+03  0.232809136473E+03  0.229223394745E+03
  0.225627756442E+03  0.222020017216E+03  0.218398044562E+03  0.214759779768E+03  0.211103240179E+03
  0.207426519626E+03  0.203727792193E+03  0.200005313868E+03  0.196257424351E+03  0.192482552570E+03
  0.188679215786E+03  0.184846029355E+03  0.180981703072E+03  0.177085055860E+03  0.173155006834E+03
  0.169190595851E+03  0.165190975346E+03  0.161155428955E+03  0.157083368579E+03  0.152974348750E+03
  0.148828071265E+03  0.144644397185E+03  0.140423355348E+03  0.136165155596E+03  0.131870199141E+03
  0.127539095665E+03  0.123172677031E+03  0.118772014982E+03  0.114338441749E+03  0.109873569304E+03
  0.105379314949E+03  0.100857925142E+03  0.963120034373E+02  0.917445403931E+02  0.871589424277E+02
  0.825590642624E+02  0.779492376525E+02  0.733342989244E+02  0.687196113494E+02  0.641110783736E+02
  0.595151443148E+02  0.549387765535E+02  0.503894230776E+02  0.458749368207E+02  0.414034597111E+02
  0.369832569596E+02  0.326224958483E+02  0.283289648877E+02  0.241097365571E+02  0.199707893577E+02
  0.159166194813E+02  0.119499023744E+02  0.807129369114E+01  0.427950562784E+01  0.571831311462E+00
 -0.305468611876E+01 -0.660127275255E+01 -0.100645826083E+02 -0.134332264910E+02 -0.166842972594E+02
 -0.197809918165E+02 -0.226727239958E+02 -0.252989405321E+02 -0.275970053750E+02 -0.295131676630E+02
 -0.310143032654E+02 -0.320974363457E+02 -0.327942250862E+02 -0.331684612348E+02 -0.333063187673E+02
 -0.333014213572E+02 -0.332393191961E+02 -0.331864678945E+02 -0.331865985968E+02 -0.332636604584E+02
 -0.334280093386E+02 -0.336825851753E+02 -0.340272348436E+02 -0.344609435654E+02 -0.349825570793E+02
 -0.355907399910E+02 -0.362837258388E+02 -0.370591427385E+02 -0.379139910040E+02 -0.388447539766E+02
 -0.398475604606E+02 -0.409183642677E+02 -0.420530910988E+02 -0.432477367348E+02 -0.444984239967E+02
 -0.458014159526E+02 -0.471530921289E+02 -0.485499003435E+02 -0.499882801428E+02 -0.514645670080E+02
 -0.529748650751E+02 -0.545149070204E+02 -0.560798676397E+02 -0.576641662011E+02 -0.592612372839E+02
 -0.608632942800E+02 -0.624611173392E+02 -0.640439140374E+02 -0.655993263597E+02 -0.671136856798E+02
 -0.685726214375E+02 -0.699621271717E+02 -0.712701499084E+02 -0.724887089918E+02 -0.736164653102E+02
 -0.746615022762E+02 -0.756436320889E+02 -0.765943839749E+02 -0.775504776150E+02 -0.785341380356E+02
 -0.795167503408E+02 -0.803813762687E+02 -0.809309058204E+02 -0.809848485211E+02 -0.805190617613E+02
 -0.797071390466E+02 -0.787954527025E+02 -0.779444219109E+02 -0.771893397384E+02 -0.764977343901E+02
 -0.758270218216E+02 -0.751477317405E+02 -0.744449636076E+02 -0.737134003152E+02 -0.729524449789E+02
 -0.721630227330E+02 -0.713459458997E+02 -0.705013788410E+02 -0.696289047432E+02 -0.687278451668E+02
 -0.677975998939E+02 -0.668379042338E+02 -0.658489880783E+02 -0.648316404488E+02 -0.637872000016E+02
 -0.627175111457E+02 -0.616248536121E+02 -0.605118426399E+02 -0.593813475130E+02 -0.582363836067E+02
 -0.570800206782E+02 -0.559152807772E+02 -0.547450439947E+02 -0.535719579690E+02 -0.523983575470E+02
 -0.512262050831E+02 -0.500570571623E+02 -0.488920707462E+02 -0.477320515963E+02 -0.465775470395E+02
 -0.454289717238E+02 -0.442867565661E+02 -0.431514904256E+02 -0.420240432557E+02 -0.409056484073E+02
 -0.397979364418E+02 -0.387029182111E+02 -0.376229213286E+02 -0.365604879790E+02 -0.355182438545E+02
 -0.344987490102E+02 -0.335043424964E+02 -0.325369942471E+02 -0.315981792659E+02 -0.306887891857E+02
 -0.298090934988E+02 -0.289587564451E+02 -0.281369068425E+02 -0.273422493442E+02 -0.265731994166E+02
 -0.258280224530E+02 -0.251049599311E+02 -0.244023309660E+02 -0.237186039917E+02 -0.230524388733E+02
 -0.224027035576E+02 -0.217684712425E+02 -0.211490043405E+02 -0.205437308028E+02 -0.199522171818E+02
 -0.193741415380E+02 -0.188092681622E+02 -0.182574251896E+02 -0.177184855405E+02 -0.171923512016E+02
 -0.166789406120E+02 -0.161781787992E+02 -0.156899898630E+02 -0.152142914193E+02 -0.147509906477E+02
 core charge-density
  0.952520675380E-04  0.101495375248E-03  0.108147643672E-03  0.115235635011E-03  0.122787860180E-03
  0.130834692828E-03  0.139408490756E-03  0.148543725228E-03  0.158277118668E-03  0.168647791305E-03
  0.179697417332E-03  0.191470391185E-03  0.204014004613E-03  0.217378635221E-03  0.231617947218E-03
  0.246789105182E-03  0.262953001643E-03  0.280174499401E-03  0.298522689509E-03  0.318071165933E-03
  0.338898317948E-03  0.361087641421E-03  0.384728070181E-03  0.409914328749E-03  0.436747307821E-03
  0.465334463929E-03  0.495790244829E-03  0.528236542266E-03  0.562803173847E-03  0.599628395867E-03
  0.638859449077E-03  0.680653139449E-03  0.725176456192E-03  0.772607229346E-03  0.823134829469E-03
  0.876960912081E-03  0.934300209665E-03  0.995381374242E-03  0.106044787368E-02  0.112975894511E-02
  0.120359060908E-02  0.128223674811E-02  0.136601025386E-02  0.145524424705E-02  0.155029337467E-02
  0.165153518935E-02  0.175937161598E-02  0.187423051085E-02  0.199656731919E-02  0.212686683710E-02
  0.226564508427E-02  0.241345129428E-02  0.257087002977E-02  0.273852342997E-02  0.291707359869E-02
  0.310722514141E-02  0.330972786029E-02  0.352537961679E-02  0.375502937195E-02  0.399958041493E-02
  0.425999379115E-02  0.453729194181E-02  0.483256256745E-02  0.514696272878E-02  0.548172319859E-02
  0.583815307975E-02  0.621764470456E-02  0.662167883209E-02  0.705183016035E-02  0.750977317196E-02
  0.799728833200E-02  0.851626865797E-02  0.906872668391E-02  0.965680183935E-02  0.102827682678E-01
  0.109490431082E-01  0.116581952654E-01  0.124129546964E-01  0.132162222402E-01  0.140710800213E-01
  0.149808024560E-01  0.159488678961E-01  0.169789709402E-01  0.180750354507E-01  0.192412283102E-01
  0.204819739569E-01  0.218019697359E-01  0.232062021106E-01  0.246999637722E-01  0.262888716940E-01
  0.279788861739E-01  0.297763309116E-01  0.316879141687E-01  0.337207510600E-01  0.358823870270E-01
  0.381808225430E-01  0.406245391049E-01  0.432225265610E-01  0.459843118320E-01  0.489199890771E-01
  0.520402513593E-01  0.553564238661E-01  0.588804987372E-01  0.626251715536E-01  0.666038795407E-01
  0.708308415327E-01  0.753210997515E-01  0.800905634417E-01  0.851560544051E-01  0.905353544751E-01
  0.962472549616E-01  0.102311608095E+00  0.108749380494E+00  0.115582708662E+00  0.122834956528E+00
  0.130530775019E+00  0.138696163641E+00  0.147358534053E+00  0.156546775577E+00  0.166291322578E+00
  0.176624223648E+00  0.187579212471E+00  0.199191780264E+00  0.211499249621E+00  0.224540849595E+00
  0.238357791801E+00  0.252993347282E+00  0.268492923870E+00  0.284904143698E+00  0.302276920501E+00
  0.320663536266E+00  0.340118716775E+00  0.360699705487E+00  0.382466335164E+00  0.405481096573E+00
  0.429809203525E+00  0.455518653420E+00  0.482680282411E+00  0.511367814172E+00  0.541657901197E+00
  0.573630157426E+00  0.607367180921E+00  0.642954565167E+00  0.680480897469E+00  0.720037742832E+00
  0.761719611507E+00  0.805623908354E+00  0.851850861922E+00  0.900503431166E+00  0.951687187406E+00
  0.100551016915E+01  0.106208270719E+01  0.112151721727E+01  0.118392795748E+01  0.124943074745E+01
  0.131814264632E+01  0.139018158622E+01  0.146566595827E+01  0.154471414755E+01  0.162744401393E+01
  0.171397231546E+01  0.180441407091E+01  0.189888185837E+01  0.199748504693E+01  0.210032895837E+01
  0.220751395638E+01  0.231913446087E+01  0.243527788549E+01  0.255602349690E+01  0.268144119473E+01
  0.281159021223E+01  0.294651773785E+01  0.308625745949E+01  0.323082803354E+01  0.338023148264E+01
  0.353445152683E+01  0.369345185456E+01  0.385717434157E+01  0.402553722728E+01  0.419843326033E+01
  0.437572782714E+01  0.455725707922E+01  0.474282607765E+01  0.493220697550E+01  0.512513726156E+01
  0.532131809137E+01  0.552041273446E+01  0.572204516931E+01  0.592579886016E+01  0.613121575290E+01
  0.633779552915E+01  0.654499516059E+01  0.675222880701E+01  0.695886810403E+01  0.716424288631E+01
  0.736764239474E+01  0.756831701344E+01  0.776548058452E+01  0.795831334386E+01  0.814596552099E+01
  0.832756164038E+01  0.850220555740E+01  0.866898625485E+01  0.882698441871E+01  0.897527980116E+01
  0.911295936892E+01  0.923912622062E+01  0.935290924359E+01  0.945347346369E+01  0.954003102361E+01
  0.961185270735E+01  0.966827990635E+01  0.970873690302E+01  0.973274332501E+01  0.973992660083E+01
  0.973003422705E+01  0.970294563489E+01  0.965868342566E+01  0.959742372685E+01  0.951950540637E+01
  0.942543787207E+01  0.931590717778E+01  0.919178015689E+01  0.905410630983E+01  0.890411718547E+01
  0.874322301647E+01  0.857300639819E+01  0.839521283758E+01  0.821173804549E+01  0.802461190048E+01
  0.783597907478E+01  0.764807638424E+01  0.746320699841E+01  0.728371172852E+01  0.711193769069E+01
  0.695020472087E+01  0.680076999367E+01  0.666579136221E+01  0.654728997864E+01  0.644711281230E+01
  0.636689569456E+01  0.630802754951E+01  0.627161649666E+01  0.625845855211E+01  0.626900970839E+01
  0.630336223502E+01  0.636122608752E+01  0.644191632449E+01  0.654434738695E+01  0.666703493854E+01
  0.680810572282E+01  0.696531552377E+01  0.713607497487E+01  0.731748269541E+01  0.750636512035E+01
  0.769932239773E+01  0.789277970662E+01  0.808304330462E+01  0.826636046642E+01  0.843898231019E+01
  0.859722834552E+01  0.873755143959E+01  0.885660182630E+01  0.895128875366E+01  0.901883837902E+01
  0.905684659916E+01  0.906332557937E+01  0.903674288454E+01  0.897605226418E+01  0.888071531075E+01
  0.875071340594E+01  0.858654958006E+01  0.838924011528E+01  0.816029596237E+01  0.790169425223E+01
  0.761584042497E+01  0.730552169249E+01  0.697385279965E+01  0.662421518513E+01  0.626019087854E+01
  0.588549258925E+01  0.550389158683E+01  0.511914509225E+01  0.473492498174E+01  0.435474965403E+01
  0.398192094344E+01  0.361946791592E+01  0.327009925296E+01  0.293616573393E+01  0.261963396522E+01
  0.232207202659E+01  0.204464711022E+01  0.178813444967E+01  0.155293593541E+01  0.133910555972E+01
  0.114637765858E+01  0.974193841797E+00  0.821727647569E+00  0.687912724293E+00  0.571485217399E+00
  0.471045210894E+00  0.385126827011E+00  0.312258106794E+00  0.251000602521E+00  0.199972785647E+00
  0.157865759705E+00  0.123455930712E+00  0.956153487165E-01  0.733191047525E-01  0.556493202710E-01
  0.417957280579E-01  0.310531920936E-01  0.228166988917E-01  0.165744191197E-01  0.118994327240E-01
  0.844066552228E-02  0.591351866446E-02  0.409059454910E-02  0.279283981966E-02  0.188134271661E-02
  0.124994262604E-02  0.818737891334E-03  0.528516695678E-03  0.336086825445E-03  0.210443915841E-03
  0.129693847222E-03  0.786319464219E-04  0.468776827368E-04  0.274665137437E-04  0.158083277264E-04
  0.893263778204E-05  0.495271047820E-05  0.269293031332E-05  0.143505043571E-05  0.749033467398E-06
  0.382692875567E-06  0.191261832230E-06  0.934412899516E-07  0.445938772776E-07  0.207739784326E-07
  0.943935533048E-08  0.418023429782E-08  0.180276191690E-08  0.756458414024E-09  0.308570986603E-09
  0.122249546275E-09  0.469942030956E-10  0.175110668187E-10  0.631832866333E-11  0.220519387662E-11
  0.743641798892E-12  0.242021979575E-12  0.759286462879E-13  0.229343586167E-13  0.666119821145E-14
  0.185798406294E-14  0.497025389829E-15  0.127341159318E-15  0.312034280306E-16  0.730215436008E-17
  0.162955212106E-17  0.346248560048E-18  0.699396982111E-19  0.134081200548E-19  0.243551295308E-20
  0.418444894401E-21  0.678787865824E-22  0.103770854694E-22  0.149222291174E-23  0.201443561509E-24
  0.254771475340E-25  0.301240429432E-26  0.332275305256E-27  0.341139112902E-28  0.325242934553E-29
 kinetic energy-density
  0.170443712255E+02  0.171959526806E+02  0.173532146010E+02  0.175164534792E+02  0.176858577678E+02
  0.178616640769E+02  0.180441134562E+02  0.182334473720E+02  0.184299468889E+02  0.186338781649E+02
  0.188455518953E+02  0.190652737518E+02  0.192933760747E+02  0.195302069050E+02  0.197761422111E+02
  0.200315597611E+02  0.202968786716E+02  0.205725301864E+02  0.208589655714E+02  0.211566644077E+02
  0.214661397635E+02  0.217879146971E+02  0.221225547325E+02  0.224706481326E+02  0.228328139396E+02
  0.232097074934E+02  0.236020130549E+02  0.240104545801E+02  0.244357925504E+02  0.248788253848E+02
  0.253403961394E+02  0.258213903479E+02  0.263227394971E+02  0.268454253266E+02  0.273904802941E+02
  0.279589921474E+02  0.285521060971E+02  0.291710284698E+02  0.298170299540E+02  0.304914503708E+02
  0.311957003918E+02  0.319312677620E+02  0.326997212893E+02  0.335027156853E+02  0.343419955550E+02
  0.352194018501E+02  0.361368777335E+02  0.370964718568E+02  0.381003497377E+02  0.391507970514E+02
  0.402502256229E+02  0.414011830763E+02  0.426063635126E+02  0.438686095712E+02  0.451909277775E+02
  0.465764918310E+02  0.480286615703E+02  0.495509832775E+02  0.511472110604E+02  0.528213096739E+02
  0.545774749995E+02  0.564201457090E+02  0.583540116767E+02  0.603840394830E+02  0.625154788176E+02
  0.647538887983E+02  0.671051471637E+02  0.695754756398E+02  0.721714645888E+02  0.749000657176E+02
  0.777686752521E+02  0.807850809130E+02  0.839575608630E+02  0.872948468621E+02  0.908062141656E+02
  0.945014497876E+02  0.983909476526E+02  0.102485678586E+03  0.106797282660E+03  0.111338073263E+03
  0.116121082025E+03  0.121160114330E+03  0.126469785718E+03  0.132065563239E+03  0.137963824945E+03
  0.144181909152E+03  0.150738167156E+03  0.157652031354E+03  0.164944064906E+03  0.172636035247E+03
  0.180750980383E+03  0.189313282203E+03  0.198348744647E+03  0.207884665914E+03  0.217949936792E+03
  0.228575115933E+03  0.239792533996E+03  0.251636386576E+03  0.264142838225E+03  0.277350131708E+03
  0.291298704858E+03  0.306031300406E+03  0.321593109874E+03  0.338031873659E+03  0.355398057778E+03
  0.373744954155E+03  0.393128878129E+03  0.413609283072E+03  0.435248934242E+03  0.458114102325E+03
  0.482274711562E+03  0.507804535859E+03  0.534781391905E+03  0.563287328000E+03  0.593408855474E+03
  0.625237112630E+03  0.658868145433E+03  0.694403084744E+03  0.731948407206E+03  0.771616166926E+03
  0.813524241242E+03  0.857796588243E+03  0.904563501892E+03  0.953961873783E+03  0.100613546878E+04
  0.106123517735E+04  0.111941931289E+04  0.118085386672E+04  0.124571280382E+04  0.131417830816E+04
  0.138644108863E+04  0.146270062008E+04  0.154316542085E+04  0.162805329646E+04  0.171759159014E+04
  0.181201740873E+04  0.191157783219E+04  0.201653011567E+04  0.212714185202E+04  0.224369111662E+04
  0.236646658731E+04  0.249576760271E+04  0.263190422492E+04  0.277519719313E+04  0.292597790174E+04
  0.308458821620E+04  0.325138037232E+04  0.342671662644E+04  0.361096896398E+04  0.380451866417E+04
  0.400775577389E+04  0.422107842291E+04  0.444489215387E+04  0.467960898522E+04  0.492564641175E+04
  0.518342622670E+04  0.545337323689E+04  0.573591370794E+04  0.603147374661E+04  0.634047737217E+04
  0.666334448476E+04  0.700048851957E+04  0.735231396827E+04  0.771921356321E+04  0.810156527709E+04
  0.849972905431E+04  0.891404322157E+04  0.934482070386E+04  0.979234486794E+04  0.102568651646E+05
  0.107385924174E+05  0.112376938587E+05  0.117542878913E+05  0.122884385354E+05  0.128401496708E+05
  0.134093589906E+05  0.139959317389E+05  0.145996542709E+05  0.152202274331E+05  0.158572598208E+05
  0.165102609523E+05  0.171786344336E+05  0.178616711371E+05  0.185585425146E+05  0.192682940582E+05
  0.199898390634E+05  0.207219527413E+05  0.214632667968E+05  0.222122646003E+05  0.229672771086E+05
  0.237264794301E+05  0.244878886685E+05  0.252493625712E+05  0.260085996210E+05  0.267631404708E+05
  0.275103708900E+05  0.282475264679E+05  0.289716991590E+05  0.296798457821E+05  0.303687985746E+05
  0.310352781564E+05  0.316759085093E+05  0.322872347092E+05  0.328657427367E+05  0.334078820558E+05
  0.339100904126E+05  0.343688211714E+05  0.347805728479E+05  0.351419208425E+05  0.354495510972E+05
  0.357002954607E+05  0.358911684689E+05  0.360194050781E+05  0.360824991397E+05  0.360782418449E+05
  0.360047598798E+05  0.358605525534E+05  0.356445272346E+05  0.353560325877E+05  0.349948887026E+05
  0.345614135525E+05  0.340564449343E+05  0.334813572423E+05  0.328380723456E+05  0.321290638614E+05
  0.313573543707E+05  0.305265048800E+05  0.296405963503E+05  0.287042028884E+05  0.277223566150E+05
  0.267005043332E+05  0.256444563005E+05  0.245603277692E+05  0.234544740581E+05  0.223334203127E+05
  0.212037872847E+05  0.200722140363E+05  0.189452803624E+05  0.178294283772E+05  0.167308857541E+05
  0.156555906232E+05  0.146091186426E+05  0.135966126406E+05  0.126227157460E+05  0.116915098789E+05
  0.108064624639E+05  0.997038477567E+04  0.918540506283E+04  0.845295844878E+04  0.777379407981E+04
  0.714799827441E+04  0.657503110146E+04  0.605377307106E+04  0.558257886643E+04  0.515933572780E+04
  0.478152525676E+04  0.444628783179E+04  0.415048909912E+04  0.389078765046E+04  0.366370294860E+04
  0.346568214147E+04  0.329316448224E+04  0.314264209103E+04  0.301071575752E+04  0.289414485339E+04
  0.278989045550E+04  0.269515123228E+04  0.260739150870E+04  0.252436175628E+04  0.244411134917E+04
  0.236499409225E+04  0.228566700366E+04  0.220508291628E+04  0.212247776791E+04  0.203735317554E+04
  0.194945535435E+04  0.185875100882E+04  0.176540103825E+04  0.166973293329E+04  0.157221233292E+04
  0.147341452072E+04  0.137399629810E+04  0.127466873830E+04  0.117617103313E+04  0.107924586030E+04
  0.984616429631E+03  0.892965337536E+03  0.804915763764E+03  0.721015106799E+03  0.641721666013E+03
  0.567394877249E+03  0.498289667452E+03  0.434555676949E+03  0.376242313197E+03  0.323310859583E+03
  0.275653876646E+03  0.233118079615E+03  0.195520082618E+03  0.162642777810E+03  0.134214112759E+03
  0.109891499212E+03  0.892751302052E+02  0.719447435254E+02  0.574934391127E+02  0.455437468883E+02
  0.357506194080E+02  0.278002931909E+02  0.214092165769E+02  0.163235576148E+02  0.123187720143E+02
  0.919880949710E+01  0.679480658835E+01  0.496329694537E+01  0.358405468907E+01  0.255770897660E+01
  0.180325936930E+01  0.125560116891E+01  0.863146917673E+00  0.585608111307E+00  0.391980940279E+00
  0.258761855591E+00  0.168403121695E+00  0.108005615820E+00  0.682361669740E-01  0.424496586999E-01
  0.259918487821E-01  0.156569798204E-01  0.927434026716E-02  0.539945763282E-02  0.308807883728E-02
  0.173407457085E-02  0.955540668826E-03  0.516397674822E-03  0.273536695348E-03  0.141930759745E-03
  0.720927102518E-04  0.358240868513E-04  0.174033737863E-04  0.825965683653E-05  0.382689001530E-05
  0.172965411311E-05  0.762015003234E-06  0.326969470700E-06  0.136528874742E-06  0.554286629432E-07
  0.218594738965E-07  0.836616392117E-08  0.310429464282E-08  0.111557875823E-08  0.387856749165E-09
  0.130314216607E-09  0.422629560805E-10  0.132146940649E-10  0.397876928427E-11  0.115208381319E-11
  0.320402997379E-12  0.854680795393E-13  0.218377479543E-13  0.533695337420E-14  0.124574335822E-14
  0.277308611767E-15  0.587799035563E-16  0.118450370340E-16  0.226556481327E-17  0.410598812016E-18
  0.703891531288E-19  0.113936388465E-19  0.173813966835E-20  0.249426902751E-21  0.336033224746E-22
  0.424147930066E-23  0.500536300095E-24  0.551053487774E-25  0.564699854251E-26  0.537404178147E-27
 mkinetic energy-density pseudized
  0.151092076267E-05  0.161078113943E-05  0.171724152793E-05  0.183073813875E-05  0.195173601270E-05
  0.208073092622E-05  0.221825142283E-05  0.236486097874E-05  0.252116031164E-05  0.268778984213E-05
  0.286543231769E-05  0.305481561024E-05  0.325671569850E-05  0.347195984746E-05  0.370142999806E-05
  0.394606638079E-05  0.420687136823E-05  0.448491358218E-05  0.478133227218E-05  0.509734198350E-05
  0.543423753360E-05  0.579339931752E-05  0.617629896391E-05  0.658450536484E-05  0.701969110421E-05
  0.748363931098E-05  0.797825096534E-05  0.850555268776E-05  0.906770504292E-05  0.966701139231E-05
  0.103059273321E-04  0.109870707546E-04  0.117132325748E-04  0.124873881659E-04  0.133127095507E-04
  0.141925783982E-04  0.151305998802E-04  0.161306174426E-04  0.171967285538E-04  0.183333014935E-04
  0.195449932513E-04  0.208367686083E-04  0.222139204794E-04  0.236820916008E-04  0.252472976503E-04
  0.269159518960E-04  0.286948914737E-04  0.305914054015E-04  0.326132644455E-04  0.347687529600E-04
  0.370667028311E-04  0.395165296650E-04  0.421282713666E-04  0.449126292692E-04  0.478810119816E-04
  0.510455821336E-04  0.544193062108E-04  0.580160076832E-04  0.618504236451E-04  0.659382651984E-04
  0.702962818268E-04  0.749423300248E-04  0.798954464618E-04  0.851759259830E-04  0.908054047638E-04
  0.968069489619E-04  0.103205149227E-03  0.110026221457E-03  0.117298114214E-03  0.125050623242E-03
  0.133315513544E-03  0.142126649541E-03  0.151520133821E-03  0.161534455064E-03  0.172210645748E-03
  0.183592450263E-03  0.195726504155E-03  0.208662525198E-03  0.222453517112E-03  0.237155986727E-03
  0.252830175513E-03  0.269540306404E-03  0.287354846941E-03  0.306346789798E-03  0.326593951855E-03
  0.348179293032E-03  0.371191256199E-03  0.395724129543E-03  0.421878432894E-03  0.449761329568E-03
  0.479487065446E-03  0.511177437056E-03  0.544962290593E-03  0.580980053925E-03  0.619378303748E-03
  0.660314370228E-03  0.703955981600E-03  0.750481951368E-03  0.800082910912E-03  0.852962090519E-03
  0.909336152021E-03  0.969436076458E-03  0.103350811040E-02  0.110181477483E-02  0.117463594061E-02
  0.125226997516E-02  0.133503496476E-02  0.142327001774E-02  0.151733665369E-02  0.161762028454E-02
  0.172453179347E-02  0.183850921812E-02  0.196001954513E-02  0.208956062308E-02  0.222766320198E-02
  0.237489310745E-02  0.253185355852E-02  0.269918763859E-02  0.287758092970E-02  0.306776432068E-02
  0.327051700102E-02  0.348666965232E-02  0.371710785072E-02  0.396277569402E-02  0.422467966834E-02
  0.450389277033E-02  0.480155890149E-02  0.511889755282E-02  0.545720879887E-02  0.581787862153E-02
  0.620238458546E-02  0.661230188827E-02  0.704930981021E-02  0.751519858965E-02  0.801187675259E-02
  0.854137892599E-02  0.910587416682E-02  0.970767484104E-02  0.103492460884E-01  0.110332159121E-01
  0.117623859341E-01  0.125397428601E-01  0.133684707009E-01  0.142519638002E-01  0.151938407213E-01
  0.161979590501E-01  0.172684311735E-01  0.184096410992E-01  0.196262623831E-01  0.209232772388E-01
  0.223059969065E-01  0.237800833634E-01  0.253515724648E-01  0.270268986084E-01  0.288129210230E-01
  0.307169517871E-01  0.327467856921E-01  0.349107320689E-01  0.372176487084E-01  0.396769780116E-01
  0.422987855159E-01  0.450938009517E-01  0.480734619956E-01  0.512499608955E-01  0.546362941549E-01
  0.582463154747E-01  0.620947921661E-01  0.661974652578E-01  0.705711135393E-01  0.752336217936E-01
  0.802040534915E-01  0.855027282353E-01  0.911513042582E-01  0.971728663056E-01  0.103592019243E+00
  0.110434987761E+00  0.117729722561E+00  0.125506013448E+00  0.133795609754E+00  0.142632348575E+00
  0.152052291307E+00  0.162093869006E+00  0.172798037135E+00  0.184208440278E+00  0.196371587457E+00
  0.209337038700E+00  0.223157603569E+00  0.237889552387E+00  0.253592840932E+00  0.270331349449E+00
  0.288173136816E+00  0.307190710817E+00  0.327461315464E+00  0.349067236398E+00  0.372096125436E+00
  0.396641345387E+00  0.422802336324E+00  0.450685004534E+00  0.480402135457E+00  0.512073831944E+00
  0.545827979269E+00  0.581800738325E+00  0.620137068561E+00  0.660991282212E+00  0.704527631458E+00
  0.750920930193E+00  0.800357212108E+00  0.853034426859E+00  0.909163176109E+00  0.968967491229E+00
  0.103268565450E+01  0.110057106560E+01  0.117289315520E+01  0.124993834737E+01  0.133201107248E+01
  0.141943483225E+01  0.151255331828E+01  0.161173158546E+01  0.171735728129E+01  0.182984193193E+01
  0.194962228544E+01  0.207716171239E+01  0.221295166336E+01  0.235751318247E+01  0.251139847526E+01
  0.267519252851E+01  0.284951477877E+01  0.303502082496E+01  0.323240417956E+01  0.344239805107E+01
  0.366577714894E+01  0.390335950019E+01  0.415600826451E+01  0.442463353243E+01  0.471019408771E+01
  0.501369911228E+01  0.533620980785E+01  0.567884090412E+01  0.604276201879E+01  0.642919882885E+01
  0.683943400651E+01  0.727480786629E+01  0.773671866181E+01  0.822662246242E+01  0.874603252987E+01
  0.929651810479E+01  0.987970250082E+01  0.104972603913E+02  0.111509141591E+02  0.118424291652E+02
  0.125736077736E+02  0.133462819538E+02  0.141623042618E+02  0.150235369788E+02  0.159318391688E+02
  0.168890513897E+02  0.178969777730E+02  0.189573651621E+02  0.200718789787E+02  0.212420754629E+02
  0.224693699181E+02  0.237550005694E+02  0.250999876421E+02  0.265050872540E+02  0.279707397272E+02
  0.294970119375E+02  0.310835333538E+02  0.327294254670E+02  0.344332243859E+02  0.361927964756E+02
  0.380052470549E+02  0.398668223441E+02  0.417728050852E+02  0.437174045414E+02  0.456936419360E+02
  0.476932328193E+02  0.497064683708E+02  0.517220982558E+02  0.537272183735E+02  0.557071676674E+02
  0.576454391118E+02  0.595236110556E+02  0.613213062728E+02  0.630161873337E+02  0.645839982356E+02
  0.659986635731E+02  0.672324578186E+02  0.682562584289E+02  0.690398973667E+02  0.695526260611E+02
  0.697637086100E+02  0.696431568950E+02  0.691626188973E+02  0.682964274948E+02  0.670228109464E+02
  0.653252576160E+02  0.631940157564E+02  0.606276938089E+02  0.576349072264E+02  0.542358939356E+02
  0.504639921222E+02  0.463668413147E+02  0.420071316179E+02  0.374626880451E+02  0.328256399797E+02
  0.282003939966E+02  0.237001074955E+02  0.194413587689E+02  0.155367364525E+02  0.120851402731E+02
  0.915971010999E+01  0.679349730000E+01  0.496329694537E+01  0.358405468907E+01  0.255770897660E+01
  0.180325936930E+01  0.125560116891E+01  0.863146917673E+00  0.585608111307E+00  0.391980940279E+00
  0.258761855591E+00  0.168403121695E+00  0.108005615820E+00  0.682361669740E-01  0.424496586999E-01
  0.259918487821E-01  0.156569798204E-01  0.927434026716E-02  0.539945763282E-02  0.308807883728E-02
  0.173407457085E-02  0.955540668826E-03  0.516397674822E-03  0.273536695348E-03  0.141930759745E-03
  0.720927102518E-04  0.358240868513E-04  0.174033737863E-04  0.825965683653E-05  0.382689001530E-05
  0.172965411311E-05  0.762015003234E-06  0.326969470700E-06  0.136528874742E-06  0.554286629432E-07
  0.218594738965E-07  0.836616392117E-08  0.310429464282E-08  0.111557875823E-08  0.387856749165E-09
  0.130314216607E-09  0.422629560805E-10  0.132146940649E-10  0.397876928427E-11  0.115208381319E-11
  0.320402997379E-12  0.854680795393E-13  0.218377479543E-13  0.533695337420E-14  0.124574335822E-14
  0.277308611767E-15  0.587799035563E-16  0.118450370340E-16  0.226556481327E-17  0.410598812016E-18
  0.703891531288E-19  0.113936388465E-19  0.173813966835E-20  0.249426902751E-21  0.336033224746E-22
  0.424147930066E-23  0.500536300095E-24  0.551053487774E-25  0.564699854251E-26  0.537404178147E-27
 local pseudopotential core
 -0.211805222802E+03 -0.211806767269E+03 -0.211808263094E+03 -0.211809711809E+03 -0.211811114898E+03
 -0.211812473797E+03 -0.211813789899E+03 -0.211815064551E+03 -0.211816299058E+03 -0.211817494683E+03
 -0.211818652654E+03 -0.211819774154E+03 -0.211820860331E+03 -0.211821912300E+03 -0.211822931135E+03
 -0.211823917882E+03 -0.211824873550E+03 -0.211825799118E+03 -0.211826695533E+03 -0.211827563714E+03
 -0.211828404550E+03 -0.211829218901E+03 -0.211830007602E+03 -0.211830771459E+03 -0.211831511256E+03
 -0.211832227749E+03 -0.211832921673E+03 -0.211833593736E+03 -0.211834244629E+03 -0.211834875016E+03
 -0.211835485544E+03 -0.211836076837E+03 -0.211836649502E+03 -0.211837204122E+03 -0.211837741268E+03
 -0.211838261488E+03 -0.211838765315E+03 -0.211839253265E+03 -0.211839725836E+03 -0.211840183513E+03
 -0.211840626764E+03 -0.211841056042E+03 -0.211841471786E+03 -0.211841874422E+03 -0.211842264362E+03
 -0.211842642004E+03 -0.211843007735E+03 -0.211843361928E+03 -0.211843704946E+03 -0.211844037139E+03
 -0.211844358847E+03 -0.211844670397E+03 -0.211844972110E+03 -0.211845264291E+03 -0.211845547241E+03
 -0.211845821247E+03 -0.211846086590E+03 -0.211846343539E+03 -0.211846592356E+03 -0.211846833296E+03
 -0.211847066603E+03 -0.211847292515E+03 -0.211847511261E+03 -0.211847723064E+03 -0.211847928139E+03
 -0.211848126695E+03 -0.211848318931E+03 -0.211848505044E+03 -0.211848685221E+03 -0.211848859644E+03
 -0.211849028490E+03 -0.211849191928E+03 -0.211849350122E+03 -0.211849503232E+03 -0.211849651411E+03
 -0.211849794807E+03 -0.211849933562E+03 -0.211850067815E+03 -0.211850197699E+03 -0.211850323342E+03
 -0.211850444868E+03 -0.211850562395E+03 -0.211850676039E+03 -0.211850785910E+03 -0.211850892113E+03
 -0.211850994750E+03 -0.211851093920E+03 -0.211851189715E+03 -0.211851282226E+03 -0.211851371538E+03
 -0.211851457733E+03 -0.211851540890E+03 -0.211851621082E+03 -0.211851698379E+03 -0.211851772850E+03
 -0.211851844556E+03 -0.211851913557E+03 -0.211851979909E+03 -0.211852043664E+03 -0.211852104870E+03
 -0.211852163572E+03 -0.211852219810E+03 -0.211852273621E+03 -0.211852325038E+03 -0.211852374091E+03
 -0.211852420805E+03 -0.211852465201E+03 -0.211852507295E+03 -0.211852547102E+03 -0.211852584628E+03
 -0.211852619879E+03 -0.211852652853E+03 -0.211852683545E+03 -0.211852711946E+03 -0.211852738038E+03
 -0.211852761802E+03 -0.211852783212E+03 -0.211852802235E+03 -0.211852818833E+03 -0.211852832962E+03
 -0.211852844572E+03 -0.211852853604E+03 -0.211852859994E+03 -0.211852863668E+03 -0.211852864546E+03
 -0.211852862539E+03 -0.211852857550E+03 -0.211852849469E+03 -0.211852838182E+03 -0.211852823558E+03
 -0.211852805460E+03 -0.211852783737E+03 -0.211852758226E+03 -0.211852728750E+03 -0.211852695119E+03
 -0.211852657128E+03 -0.211852614556E+03 -0.211852567165E+03 -0.211852514700E+03 -0.211852456887E+03
 -0.211852393432E+03 -0.211852324018E+03 -0.211852248307E+03 -0.211852165937E+03 -0.211852076520E+03
 -0.211851979641E+03 -0.211851874854E+03 -0.211851761685E+03 -0.211851639624E+03 -0.211851508129E+03
 -0.211851366619E+03 -0.211851214473E+03 -0.211851051028E+03 -0.211850875577E+03 -0.211850687362E+03
 -0.211850485577E+03 -0.211850269360E+03 -0.211850037791E+03 -0.211849789887E+03 -0.211849524600E+03
 -0.211849240812E+03 -0.211848937330E+03 -0.211848612879E+03 -0.211848266101E+03 -0.211847895547E+03
 -0.211847499669E+03 -0.211847076819E+03 -0.211846625235E+03 -0.211846143041E+03 -0.211845628233E+03
 -0.211845078677E+03 -0.211844492094E+03 -0.211843866054E+03 -0.211843197964E+03 -0.211842485060E+03
 -0.211841724394E+03 -0.211840912820E+03 -0.211840046985E+03 -0.211839123311E+03 -0.211838137981E+03
 -0.211837086927E+03 -0.211835965806E+03 -0.211834769990E+03 -0.211833494538E+03 -0.211832134184E+03
 -0.211830683308E+03 -0.211829135917E+03 -0.211827485617E+03 -0.211825725588E+03 -0.211823848554E+03
 -0.211821846753E+03 -0.211819711905E+03 -0.211817435175E+03 -0.211815007138E+03 -0.211812417737E+03
 -0.211809656240E+03 -0.211806711199E+03 -0.211803570392E+03 -0.211800220781E+03 -0.211796648449E+03
 -0.211792838542E+03 -0.211788775207E+03 -0.211784441520E+03 -0.211779819415E+03 -0.211774889606E+03
 -0.211769631499E+03 -0.211764023107E+03 -0.211758040950E+03 -0.211751659954E+03 -0.211744853335E+03
 -0.211737592487E+03 -0.211729846851E+03 -0.211721583777E+03 -0.211712768382E+03 -0.211703363387E+03
 -0.211693328953E+03 -0.211682622500E+03 -0.211671198508E+03 -0.211659008316E+03 -0.211645999891E+03
 -0.211632117596E+03 -0.211617301926E+03 -0.211601489235E+03 -0.211584611440E+03 -0.211566595700E+03
 -0.211547364081E+03 -0.211526833183E+03 -0.211504913756E+03 -0.211481510271E+03 -0.211456520479E+03
 -0.211429834922E+03 -0.211401336422E+03 -0.211370899528E+03 -0.211338389926E+03 -0.211303663811E+03
 -0.211266567213E+03 -0.211226935286E+03 -0.211184591539E+03 -0.211139347030E+03 -0.211090999503E+03
 -0.211039332468E+03 -0.210984114236E+03 -0.210925096888E+03 -0.210862015185E+03 -0.210794585420E+03
 -0.210722504200E+03 -0.210645447165E+03 -0.210563067631E+03 -0.210474995164E+03 -0.210380834071E+03
 -0.210280161809E+03 -0.210172527302E+03 -0.210057449162E+03 -0.209934413794E+03 -0.209802873390E+03
 -0.209662243773E+03 -0.209511902094E+03 -0.209351184341E+03 -0.209179382648E+03 -0.208995742349E+03
 -0.208799458753E+03 -0.208589673592E+03 -0.208365471071E+03 -0.208125873468E+03 -0.207869836212E+03
 -0.207596242348E+03 -0.207303896298E+03 -0.206991516826E+03 -0.206657729075E+03 -0.206301055587E+03
 -0.205919906148E+03 -0.205512566352E+03 -0.205077184741E+03 -0.204611758395E+03 -0.204114116846E+03
 -0.203581904214E+03 -0.203012559473E+03 -0.202403294804E+03 -0.201751072002E+03 -0.201052577011E+03
 -0.200304192683E+03 -0.199501969981E+03 -0.198641597922E+03 -0.197718372717E+03 -0.196727166659E+03
 -0.195662397507E+03 -0.194517999254E+03 -0.193287395356E+03 -0.191963475720E+03 -0.190538578917E+03
 -0.189004481406E+03 -0.187352395807E+03 -0.185572980736E+03 -0.183656365274E+03 -0.181592191983E+03
 -0.179369683579E+03 -0.176977739969E+03 -0.174405074581E+03 -0.171640401693E+03 -0.168672689946E+03
 -0.165491501205E+03 -0.162087438284E+03 -0.158452729174E+03 -0.154581978596E+03 -0.150473118641E+03
 -0.146128587033E+03 -0.141556751636E+03 -0.136773579799E+03 -0.131804517148E+03 -0.126686488850E+03
 -0.121469865369E+03 -0.116220147717E+03 -0.111020063969E+03 -0.105987917025E+03 -0.101247258585E+03
 -0.969227910139E+02 -0.931403832798E+02 -0.900175651195E+02 -0.876442996445E+02 -0.858997342087E+02
 -0.835657792983E+02 -0.809337942412E+02 -0.783848586824E+02 -0.759162241417E+02 -0.735253512776E+02
 -0.712097830026E+02 -0.689671461544E+02 -0.667951404337E+02 -0.646915390090E+02 -0.626541885480E+02
 -0.606810001358E+02 -0.587699543057E+02 -0.569190931336E+02 -0.551265216374E+02 -0.533904052310E+02
 -0.517089619567E+02 -0.500804740076E+02 -0.485032723729E+02 -0.469757418730E+02 -0.454963182052E+02
 -0.440634863150E+02 -0.426757788664E+02 -0.413317746924E+02 -0.400300975015E+02 -0.387694142573E+02
 -0.375484339544E+02 -0.363659062385E+02 -0.352206201434E+02 -0.341114028846E+02 -0.330371185532E+02
 -0.319966670420E+02 -0.309889828723E+02 -0.300130341118E+02 -0.290678213234E+02 -0.281523765331E+02
 -0.272657622481E+02 -0.264070704958E+02 -0.255754218951E+02 -0.247699647587E+02 -0.239898742217E+02
 -0.232343513970E+02 -0.225026225585E+02 -0.217939383482E+02 -0.211075730090E+02 -0.204428236413E+02
 -0.197990094835E+02 -0.191754712136E+02 -0.185715702751E+02 -0.179866882218E+02 -0.174202260848E+02
 -0.168716037594E+02 -0.163402594099E+02 -0.158256488953E+02 -0.153272452111E+02 -0.148445379503E+02
 pspotential valence only
 -0.831461867349E+02 -0.831477312131E+02 -0.831492270497E+02 -0.831506757768E+02 -0.831520788788E+02
 -0.831534377925E+02 -0.831547539092E+02 -0.831560285768E+02 -0.831572631008E+02 -0.831584587449E+02
 -0.831596167348E+02 -0.831607382551E+02 -0.831618244549E+02 -0.831628764468E+02 -0.831638953077E+02
 -0.831648820809E+02 -0.831658377774E+02 -0.831667633757E+02 -0.831676598236E+02 -0.831685280393E+02
 -0.831693689118E+02 -0.831701833024E+02 -0.831709720446E+02 -0.831717359470E+02 -0.831724757912E+02
 -0.831731923350E+02 -0.831738863124E+02 -0.831745584340E+02 -0.831752093877E+02 -0.831758398409E+02
 -0.831764504386E+02 -0.831770418063E+02 -0.831776145498E+02 -0.831781692553E+02 -0.831787064912E+02
 -0.831792268075E+02 -0.831797307370E+02 -0.831802187959E+02 -0.831806914839E+02 -0.831811492851E+02
 -0.831815926682E+02 -0.831820220875E+02 -0.831824379826E+02 -0.831828407792E+02 -0.831832308902E+02
 -0.831836087148E+02 -0.831839746400E+02 -0.831843290406E+02 -0.831846722794E+02 -0.831850047081E+02
 -0.831853266667E+02 -0.831856384854E+02 -0.831859404832E+02 -0.831862329694E+02 -0.831865162436E+02
 -0.831867905958E+02 -0.831870563070E+02 -0.831873136492E+02 -0.831875628859E+02 -0.831878042725E+02
 -0.831880380559E+02 -0.831882644757E+02 -0.831884837636E+02 -0.831886961442E+02 -0.831889018349E+02
 -0.831891010464E+02 -0.831892939826E+02 -0.831894808411E+02 -0.831896618131E+02 -0.831898370840E+02
 -0.831900068331E+02 -0.831901712342E+02 -0.831903304557E+02 -0.831904846605E+02 -0.831906340065E+02
 -0.831907786465E+02 -0.831909187286E+02 -0.831910543960E+02 -0.831911857877E+02 -0.831913130382E+02
 -0.831914362776E+02 -0.831915556320E+02 -0.831916712236E+02 -0.831917831705E+02 -0.831918915872E+02
 -0.831919965847E+02 -0.831920982703E+02 -0.831921967479E+02 -0.831922921183E+02 -0.831923844788E+02
 -0.831924739240E+02 -0.831925605451E+02 -0.831926444305E+02 -0.831927256661E+02 -0.831928043346E+02
 -0.831928805164E+02 -0.831929542892E+02 -0.831930257281E+02 -0.831930949060E+02 -0.831931618934E+02
 -0.831932267585E+02 -0.831932895672E+02 -0.831933503835E+02 -0.831934092690E+02 -0.831934662837E+02
 -0.831935214854E+02 -0.831935749299E+02 -0.831936266715E+02 -0.831936767624E+02 -0.831937252532E+02
 -0.831937721927E+02 -0.831938176284E+02 -0.831938616058E+02 -0.831939041691E+02 -0.831939453608E+02
 -0.831939852221E+02 -0.831940237928E+02 -0.831940611110E+02 -0.831940972138E+02 -0.831941321368E+02
 -0.831941659143E+02 -0.831941985794E+02 -0.831942301638E+02 -0.831942606982E+02 -0.831942902119E+02
 -0.831943187332E+02 -0.831943462892E+02 -0.831943729058E+02 -0.831943986079E+02 -0.831944234192E+02
 -0.831944473623E+02 -0.831944704589E+02 -0.831944927295E+02 -0.831945141935E+02 -0.831945348693E+02
 -0.831945547744E+02 -0.831945739250E+02 -0.831945923364E+02 -0.831946100228E+02 -0.831946269975E+02
 -0.831946432725E+02 -0.831946588588E+02 -0.831946737665E+02 -0.831946880043E+02 -0.831947015800E+02
 -0.831947145001E+02 -0.831947267702E+02 -0.831947383943E+02 -0.831947493756E+02 -0.831947597156E+02
 -0.831947694148E+02 -0.831947784722E+02 -0.831947868854E+02 -0.831947946507E+02 -0.831948017627E+02
 -0.831948082143E+02 -0.831948139970E+02 -0.831948191004E+02 -0.831948235122E+02 -0.831948272183E+02
 -0.831948302025E+02 -0.831948324464E+02 -0.831948339293E+02 -0.831948346281E+02 -0.831948345171E+02
 -0.831948335679E+02 -0.831948317493E+02 -0.831948290266E+02 -0.831948253622E+02 -0.831948207147E+02
 -0.831948150389E+02 -0.831948082856E+02 -0.831948004011E+02 -0.831947913272E+02 -0.831947810003E+02
 -0.831947693517E+02 -0.831947563065E+02 -0.831947417836E+02 -0.831947256950E+02 -0.831947079453E+02
 -0.831946884309E+02 -0.831946670396E+02 -0.831946436498E+02 -0.831946181293E+02 -0.831945903351E+02
 -0.831945601116E+02 -0.831945272902E+02 -0.831944916876E+02 -0.831944531050E+02 -0.831944113258E+02
 -0.831943661148E+02 -0.831943172161E+02 -0.831942643508E+02 -0.831942072153E+02 -0.831941454784E+02
 -0.831940787789E+02 -0.831940067226E+02 -0.831939288785E+02 -0.831938447758E+02 -0.831937538990E+02
 -0.831936556839E+02 -0.831935495124E+02 -0.831934347064E+02 -0.831933105220E+02 -0.831931761424E+02
 -0.831930306698E+02 -0.831928731169E+02 -0.831927023975E+02 -0.831925173153E+02 -0.831923165522E+02
 -0.831920986552E+02 -0.831918620213E+02 -0.831916048814E+02 -0.831913252821E+02 -0.831910210656E+02
 -0.831906898472E+02 -0.831903289908E+02 -0.831899355813E+02 -0.831895063949E+02 -0.831890378652E+02
 -0.831885260468E+02 -0.831879665749E+02 -0.831873546205E+02 -0.831866848424E+02 -0.831859513334E+02
 -0.831851475622E+02 -0.831842663102E+02 -0.831832996027E+02 -0.831822386342E+02 -0.831810736881E+02
 -0.831797940500E+02 -0.831783879156E+02 -0.831768422910E+02 -0.831751428886E+02 -0.831732740161E+02
 -0.831712184602E+02 -0.831689573662E+02 -0.831664701128E+02 -0.831637341840E+02 -0.831607250399E+02
 -0.831574159870E+02 -0.831537780503E+02 -0.831497798496E+02 -0.831453874830E+02 -0.831405644194E+02
 -0.831352714042E+02 -0.831294663819E+02 -0.831231044385E+02 -0.831161377678E+02 -0.831085156666E+02
 -0.831001845606E+02 -0.830910880651E+02 -0.830811670844E+02 -0.830703599482E+02 -0.830586025888E+02
 -0.830458287556E+02 -0.830319702620E+02 -0.830169572612E+02 -0.830007185382E+02 -0.829831818042E+02
 -0.829642739773E+02 -0.829439214235E+02 -0.829220501305E+02 -0.828985857792E+02 -0.828734536712E+02
 -0.828465784657E+02 -0.828178836714E+02 -0.827872908333E+02 -0.827547183493E+02 -0.827200798471E+02
 -0.826832820494E+02 -0.826442220527E+02 -0.826027839506E+02 -0.825588347346E+02 -0.825122194180E+02
 -0.824627553428E+02 -0.824102256515E+02 -0.823543719371E+02 -0.822948861199E+02 -0.822314016487E+02
 -0.821634841802E+02 -0.820906219530E+02 -0.820122161455E+02 -0.819275715770E+02 -0.818358881858E+02
 -0.817362537725E+02 -0.816276385400E+02 -0.815088919666E+02 -0.813787425141E+02 -0.812358005796E+02
 -0.810785649491E+02 -0.809054327943E+02 -0.807147129840E+02 -0.805046421789E+02 -0.802734028736E+02
 -0.800191422883E+02 -0.797399908451E+02 -0.794340789385E+02 -0.790995508683E+02 -0.787345751527E+02
 -0.783373509863E+02 -0.779061112963E+02 -0.774391236218E+02 -0.769346908236E+02 -0.763911543522E+02
 -0.758069034297E+02 -0.751803940741E+02 -0.745101825399E+02 -0.737949787617E+02 -0.730337272893E+02
 -0.722257268453E+02 -0.713708069834E+02 -0.704706218677E+02 -0.695473631841E+02 -0.686154753117E+02
 -0.676817318390E+02 -0.667518183555E+02 -0.658296695482E+02 -0.649087190963E+02 -0.637995495580E+02
 -0.627176350549E+02 -0.616248536121E+02 -0.605118426399E+02 -0.593813475130E+02 -0.582363836067E+02
 -0.570800206782E+02 -0.559152807772E+02 -0.547450439947E+02 -0.535719579690E+02 -0.523983575470E+02
 -0.512262050831E+02 -0.500570571623E+02 -0.488920707462E+02 -0.477320515963E+02 -0.465775470395E+02
 -0.454289717238E+02 -0.442867565661E+02 -0.431514904256E+02 -0.420240432557E+02 -0.409056484073E+02
 -0.397979364418E+02 -0.387029182111E+02 -0.376229213286E+02 -0.365604879790E+02 -0.355182438545E+02
 -0.344987490102E+02 -0.335043424964E+02 -0.325369942471E+02 -0.315981792659E+02 -0.306887891857E+02
 -0.298090934988E+02 -0.289587564451E+02 -0.281369068425E+02 -0.273422493442E+02 -0.265731994166E+02
 -0.258280224530E+02 -0.251049599311E+02 -0.244023309660E+02 -0.237186039917E+02 -0.230524388733E+02
 -0.224027035576E+02 -0.217684712425E+02 -0.211490043405E+02 -0.205437308028E+02 -0.199522171818E+02
 -0.193741415380E+02 -0.188092681622E+02 -0.182574251896E+02 -0.177184855405E+02 -0.171923512016E+02
 -0.166789406120E+02 -0.161781787992E+02 -0.156899898630E+02 -0.152142914193E+02 -0.147509906477E+02
 core charge-density (pseudized)
  0.664368237932E-08  0.708277928095E-08  0.755089714963E-08  0.804995405063E-08  0.858199481872E-08
  0.914919943673E-08  0.975389196776E-08  0.103985500778E-07  0.110858151877E-07  0.118185032961E-07
  0.125996165179E-07  0.134323553847E-07  0.143201319591E-07  0.152665838149E-07  0.162755889421E-07
  0.173512816359E-07  0.184980694375E-07  0.197206511925E-07  0.210240363048E-07  0.224135652615E-07
  0.238949315154E-07  0.254742048132E-07  0.271578560655E-07  0.289527838608E-07  0.308663427319E-07
  0.329063732901E-07  0.350812343514E-07  0.373998371856E-07  0.398716820299E-07  0.425068970146E-07
  0.453162796619E-07  0.483113411283E-07  0.515043533697E-07  0.549083994247E-07  0.585374270208E-07
  0.624063057239E-07  0.665308878648E-07  0.709280734919E-07  0.756158796180E-07  0.806135140426E-07
  0.859414540539E-07  0.916215303321E-07  0.976770163983E-07  0.104132723975E-06  0.111015104651E-06
  0.118352358259E-06  0.126174548429E-06  0.134513725761E-06  0.143404059159E-06  0.152881975824E-06
  0.162986310520E-06  0.173758464685E-06  0.185242576078E-06  0.197485699620E-06  0.210538000202E-06
  0.224452958225E-06  0.239287588733E-06  0.255102675022E-06  0.271963017693E-06  0.289937700166E-06
  0.309100371736E-06  0.329529549346E-06  0.351308939296E-06  0.374527780221E-06  0.399281208731E-06
  0.425670649222E-06  0.453804229447E-06  0.483797223554E-06  0.515772524405E-06  0.549861147110E-06
  0.586202765840E-06  0.624946286122E-06  0.666250454953E-06  0.710284511242E-06  0.757228879234E-06
  0.807275907767E-06  0.860630658389E-06  0.917511745557E-06  0.978152232370E-06  0.104280058550E-05
  0.111172169321E-05  0.118519795074E-05  0.126353041728E-05  0.134704004954E-05  0.143606901680E-05
  0.153098210284E-05  0.163216820054E-05  0.174004190532E-05  0.185504521377E-05  0.197764933465E-05
  0.210835661951E-05  0.224770262090E-05  0.239625828667E-05  0.255463229918E-05  0.272347356923E-05
  0.290347389465E-05  0.309537079474E-05  0.329995053191E-05  0.351805133310E-05  0.375056682398E-05
  0.399844969023E-05  0.426271558062E-05  0.454444726815E-05  0.484479908613E-05  0.516500165733E-05
  0.550636693577E-05  0.587029358155E-05  0.625827269095E-05  0.667189390511E-05  0.711285192236E-05
  0.758295344090E-05  0.808412456021E-05  0.861841867152E-05  0.918802486959E-05  0.979527692035E-05
  0.104426628210E-04  0.111328349918E-04  0.118686211410E-04  0.126530358482E-04  0.134892929119E-04
  0.143808185139E-04  0.153312652529E-04  0.163445271047E-04  0.174247553716E-04  0.185763756842E-04
  0.198041061276E-04  0.211129765633E-04  0.225083492287E-04  0.239959406959E-04  0.255818452816E-04
  0.272725600024E-04  0.290750111780E-04  0.309965827917E-04  0.330451467225E-04  0.352290949735E-04
  0.375573740287E-04  0.400395214767E-04  0.426857050524E-04  0.455067642553E-04  0.485142547147E-04
  0.517204954825E-04  0.551386194460E-04  0.587826270673E-04  0.626674436675E-04  0.668089804893E-04
  0.712241997867E-04  0.759311842071E-04  0.809492107471E-04  0.862988295843E-04  0.920019481041E-04
  0.980819204644E-04  0.104563643060E-03  0.111473656278E-03  0.118840252948E-03  0.126693593941E-03
  0.135065831373E-03  0.143991239911E-03  0.153506356731E-03  0.163650130663E-03  0.174464081155E-03
  0.185992467679E-03  0.198282470262E-03  0.211384381885E-03  0.225351813494E-03  0.240241912479E-03
  0.256115595466E-03  0.273037796382E-03  0.291077730757E-03  0.310309177338E-03  0.330810778127E-03
  0.352666358034E-03  0.375965265423E-03  0.400802734878E-03  0.427280273649E-03  0.455506073271E-03
  0.485595447996E-03  0.517671301739E-03  0.551864625365E-03  0.588315026257E-03  0.627171292212E-03
  0.668591991838E-03  0.712746113776E-03  0.759813747177E-03  0.809986806041E-03  0.863469800151E-03
  0.920480655527E-03  0.981251587451E-03  0.104603002934E-02  0.111507962090E-02  0.118868125915E-02
  0.126713421622E-02  0.135075732788E-02  0.143989025717E-02  0.153489483743E-02  0.163615649962E-02
  0.174408578880E-02  0.185911997497E-02  0.198172476366E-02  0.211239611204E-02  0.225166215649E-02
  0.240008525776E-02  0.255826417020E-02  0.272683634186E-02  0.290648035218E-02  0.309791849466E-02
  0.330191951183E-02  0.351930148994E-02  0.375093492138E-02  0.399774594249E-02  0.426071975480E-02
  0.454090423774E-02  0.483941376074E-02  0.515743320269E-02  0.549622218639E-02  0.585711953542E-02
  0.624154796057E-02  0.665101898203E-02  0.708713809338E-02  0.755161017189E-02  0.804624513904E-02
  0.857296387329E-02  0.913380437581E-02  0.973092818742E-02  0.103666270529E-01  0.110433298257E-01
  0.117636096020E-01  0.125301910709E-01  0.133459580602E-01  0.142139612532E-01  0.151374260460E-01
  0.161197605057E-01  0.171645633827E-01  0.182756321200E-01  0.194569707911E-01  0.207127978848E-01
  0.220475538421E-01  0.234659082312E-01  0.249727664301E-01  0.265732756637E-01  0.282728302178E-01
  0.300770756267E-01  0.319919115992E-01  0.340234934140E-01  0.361782314789E-01  0.384627887032E-01
  0.408840752891E-01  0.434492404928E-01  0.461656608517E-01  0.490409243106E-01  0.520828096116E-01
  0.552992602393E-01  0.586983521327E-01  0.622882542917E-01  0.660771813139E-01  0.700733368046E-01
  0.742848465032E-01  0.787196798698E-01  0.833855587739E-01  0.882898518279E-01  0.934394528164E-01
  0.988406415857E-01  0.104498925689E+00  0.110418861038E+00  0.116603849781E+00  0.123055913671E+00
  0.129775441222E+00  0.136760907132E+00  0.144008562625E+00  0.151512095716E+00  0.159262260839E+00
  0.167246477865E+00  0.175448401329E+00  0.183847461666E+00  0.192418381520E+00  0.201130671717E+00
  0.209948113371E+00  0.218828234865E+00  0.227721795108E+00  0.236572287641E+00  0.245315483774E+00
  0.253879037110E+00  0.262182176454E+00  0.270135519259E+00  0.277641043293E+00  0.284592260042E+00
  0.290874639272E+00  0.296366339858E+00  0.300939307077E+00  0.304460800434E+00  0.306795418122E+00
  0.307807683341E+00  0.307365252904E+00  0.305342798310E+00  0.301626592093E+00  0.296119805925E+00
  0.288748489312E+00  0.279468146617E+00  0.268270763173E+00  0.255192046352E+00  0.240318543031E+00
  0.223794170538E+00  0.205825554851E+00  0.186685411340E+00  0.166713036699E+00  0.146310817843E+00
  0.125935522504E+00  0.106083042588E+00  0.872652497049E-01  0.699777371704E-01  0.546575187810E-01
  0.416302953499E-01  0.310477541844E-01  0.228166988917E-01  0.165744191197E-01  0.118994327240E-01
  0.844066552228E-02  0.591351866446E-02  0.409059454910E-02  0.279283981966E-02  0.188134271661E-02
  0.124994262604E-02  0.818737891334E-03  0.528516695678E-03  0.336086825445E-03  0.210443915841E-03
  0.129693847222E-03  0.786319464219E-04  0.468776827368E-04  0.274665137437E-04  0.158083277264E-04
  0.893263778204E-05  0.495271047820E-05  0.269293031332E-05  0.143505043571E-05  0.749033467398E-06
  0.382692875567E-06  0.191261832230E-06  0.934412899516E-07  0.445938772776E-07  0.207739784326E-07
  0.943935533048E-08  0.418023429782E-08  0.180276191690E-08  0.756458414024E-09  0.308570986603E-09
  0.122249546275E-09  0.469942030956E-10  0.175110668187E-10  0.631832866333E-11  0.220519387662E-11
  0.743641798892E-12  0.242021979575E-12  0.759286462879E-13  0.229343586167E-13  0.666119821145E-14
  0.185798406294E-14  0.497025389829E-15  0.127341159318E-15  0.312034280306E-16  0.730215436008E-17
  0.162955212106E-17  0.346248560048E-18  0.699396982111E-19  0.134081200548E-19  0.243551295308E-20
  0.418444894401E-21  0.678787865824E-22  0.103770854694E-22  0.149222291174E-23  0.201443561509E-24
  0.254771475340E-25  0.301240429432E-26  0.332275305256E-27  0.341139112902E-28  0.325242934553E-29
 pseudo wavefunction
  0.122874961095E-03  0.126870548278E-03  0.130996061987E-03  0.135255727108E-03  0.139653905910E-03
  0.144195102513E-03  0.148883967498E-03  0.153725302672E-03  0.158724065985E-03  0.163885376608E-03
  0.169214520173E-03  0.174716954189E-03  0.180398313627E-03  0.186264416697E-03  0.192321270798E-03
  0.198575078680E-03  0.205032244787E-03  0.211699381819E-03  0.218583317508E-03  0.225691101604E-03
  0.233030013098E-03  0.240607567675E-03  0.248431525412E-03  0.256509898725E-03  0.264850960571E-03
  0.273463252925E-03  0.282355595525E-03  0.291537094905E-03  0.301017153720E-03  0.310805480376E-03
  0.320912098972E-03  0.331347359565E-03  0.342121948772E-03  0.353246900708E-03  0.364733608293E-03
  0.376593834914E-03  0.388839726474E-03  0.401483823832E-03  0.414539075641E-03  0.428018851613E-03
  0.441936956210E-03  0.456307642778E-03  0.471145628147E-03  0.486466107701E-03  0.502284770939E-03
  0.518617817542E-03  0.535481973963E-03  0.552894510558E-03  0.570873259269E-03  0.589436631890E-03
  0.608603638915E-03  0.628393909013E-03  0.648827709127E-03  0.669925965227E-03  0.691710283743E-03
  0.714202973688E-03  0.737427069509E-03  0.761406354669E-03  0.786165386011E-03  0.811729518899E-03
  0.838124933189E-03  0.865378660035E-03  0.893518609572E-03  0.922573599501E-03  0.952573384594E-03
  0.983548687170E-03  0.101553122856E-02  0.104855376157E-02  0.108265010405E-02  0.111785517353E-02
  0.115420502293E-02  0.119173687752E-02  0.123048917305E-02  0.127050159508E-02  0.131181511962E-02
  0.135447205511E-02  0.139851608576E-02  0.144399231623E-02  0.149094731787E-02  0.153942917639E-02
  0.158948754110E-02  0.164117367576E-02  0.169454051106E-02  0.174964269884E-02  0.180653666804E-02
  0.186528068250E-02  0.192593490059E-02  0.198856143687E-02  0.205322442561E-02  0.211999008655E-02
  0.218892679265E-02  0.226010514011E-02  0.233359802068E-02  0.240948069628E-02  0.248783087605E-02
  0.256872879597E-02  0.265225730094E-02  0.273850192968E-02  0.282755100226E-02  0.291949571054E-02
  0.301443021158E-02  0.311245172397E-02  0.321366062742E-02  0.331816056554E-02  0.342605855188E-02
  0.353746507959E-02  0.365249423444E-02  0.377126381169E-02  0.389389543664E-02  0.402051468914E-02
  0.415125123217E-02  0.428623894453E-02  0.442561605791E-02  0.456952529837E-02  0.471811403243E-02
  0.487153441791E-02  0.502994355962E-02  0.519350367023E-02  0.536238223619E-02  0.553675218916E-02
  0.571679208301E-02  0.590268627645E-02  0.609462512175E-02  0.629280515940E-02  0.649742931928E-02
  0.670870712820E-02  0.692685492424E-02  0.715209607804E-02  0.738466122127E-02  0.762478848247E-02
  0.787272373059E-02  0.812872082635E-02  0.839304188182E-02  0.866595752836E-02  0.894774719326E-02
  0.923869938529E-02  0.953911198957E-02  0.984929257191E-02  0.101695586930E-01  0.105002382329E-01
  0.108416697257E-01  0.111942027052E-01  0.115581980621E-01  0.119340284117E-01  0.123220784749E-01
  0.127227454700E-01  0.131364395182E-01  0.135635840617E-01  0.140046162955E-01  0.144599876125E-01
  0.149301640640E-01  0.154156268336E-01  0.159168727275E-01  0.164344146800E-01  0.169687822751E-01
  0.175205222850E-01  0.180901992258E-01  0.186783959306E-01  0.192857141416E-01  0.199127751202E-01
  0.205602202771E-01  0.212287118221E-01  0.219189334349E-01  0.226315909563E-01  0.233674131021E-01
  0.241271521992E-01  0.249115849448E-01  0.257215131890E-01  0.265577647430E-01  0.274211942115E-01
  0.283126838512E-01  0.292331444566E-01  0.301835162725E-01  0.311647699347E-01  0.321779074403E-01
  0.332239631467E-01  0.343040048016E-01  0.354191346043E-01  0.365704902991E-01  0.377592463007E-01
  0.389866148544E-01  0.402538472299E-01  0.415622349507E-01  0.429131110588E-01  0.443078514174E-01
  0.457478760497E-01  0.472346505170E-01  0.487696873349E-01  0.503545474296E-01  0.519908416348E-01
  0.536802322282E-01  0.554244345106E-01  0.572252184265E-01  0.590844102268E-01  0.610038941739E-01
  0.629856142907E-01  0.650315761508E-01  0.671438487137E-01  0.693245662010E-01  0.715759300164E-01
  0.739002107074E-01  0.762997499681E-01  0.787769626829E-01  0.813343390096E-01  0.839744465000E-01
  0.866999322572E-01  0.895135251268E-01  0.924180379197E-01  0.954163696633E-01  0.985115078791E-01
  0.101706530880E+00  0.105004610085E+00  0.108409012346E+00  0.111923102282E+00  0.115550344605E+00
  0.119294306446E+00  0.123158659659E+00  0.127147183094E+00  0.131263764843E+00  0.135512404422E+00
  0.139897214896E+00  0.144422424924E+00  0.149092380704E+00  0.153911547803E+00  0.158884512850E+00
  0.164015985068E+00  0.169310797610E+00  0.174773908691E+00  0.180410402463E+00  0.186225489600E+00
  0.192224507567E+00  0.198412920514E+00  0.204796318756E+00  0.211380417779E+00  0.218171056722E+00
  0.225174196259E+00  0.232395915825E+00  0.239842410093E+00  0.247519984628E+00  0.255435050621E+00
  0.263594118597E+00  0.272003790992E+00  0.280670753475E+00  0.289601764878E+00  0.298803645591E+00
  0.308283264273E+00  0.318047522690E+00  0.328103338509E+00  0.338457625842E+00  0.349117273318E+00
  0.360089119458E+00  0.371379925079E+00  0.382996342484E+00  0.394944881114E+00  0.407231869376E+00
  0.419863412285E+00  0.432845344593E+00  0.446183179006E+00  0.459882049098E+00  0.473946646503E+00
  0.488381151946E+00  0.503189159653E+00  0.518373594677E+00  0.533936622639E+00  0.549879551414E+00
  0.566202724251E+00  0.582905403843E+00  0.599985646878E+00  0.617440168613E+00  0.635264197054E+00
  0.653451316392E+00  0.671993299394E+00  0.690879928558E+00  0.710098805947E+00  0.729635151783E+00
  0.749471592032E+00  0.769587935481E+00  0.789960941024E+00  0.810564076231E+00  0.831367268627E+00
  0.852336651557E+00  0.873434307009E+00  0.894618008364E+00  0.915840966686E+00  0.937051584925E+00
  0.958193225222E+00  0.979203995436E+00  0.100001656199E+01  0.102055799721E+01  0.104074967046E+01
  0.106050719343E+01  0.107974043133E+01  0.109835359247E+01  0.111624540996E+01  0.113330943004E+01
  0.114943442172E+01  0.116450492299E+01  0.117840193769E+01  0.119100379633E+01  0.120218719149E+01
  0.121182839503E+01  0.121980465892E+01  0.122599579474E+01  0.123028591740E+01  0.123256532683E+01
  0.123273248659E+01  0.123069604055E+01  0.122637678713E+01  0.121970950651E+01  0.121064450790E+01
  0.119914873445E+01  0.118520623131E+01  0.116881775189E+01  0.114999924931E+01  0.112877897872E+01
  0.110519292719E+01  0.107927829586E+01  0.105106479347E+01  0.102056356925E+01  0.987753727687E+00
  0.952594840321E+00  0.915298271815E+00  0.876202401676E+00  0.835653844256E+00  0.793997629766E+00
  0.751573320865E+00  0.708711386646E+00  0.665729862445E+00  0.622931312071E+00  0.580600103192E+00
  0.539000002752E+00  0.498372100096E+00  0.458933068872E+00  0.420873786618E+00  0.384358337773E+00
  0.349523430832E+00  0.316478259969E+00  0.285304831376E+00  0.256058759067E+00  0.228770511466E+00
  0.203447065556E+00  0.180073902676E+00  0.158617263023E+00  0.139026566782E+00  0.121236908984E+00
  0.105171542000E+00  0.907442723175E-01  0.778617149969E-01  0.664253678381E-01  0.563334857014E-01
  0.474827516011E-01  0.397697533664E-01  0.330922817212E-01  0.273504673536E-01  0.224477718310E-01
  0.182918418084E-01  0.147952299859E-01  0.118759815632E-01  0.945808267600E-02  0.747176780200E-02
  0.585368597835E-02  0.454693004842E-02  0.350093807081E-02  0.267128063291E-02  0.201935149036E-02
  0.151198135913E-02  0.112099571738E-02  0.822737212071E-03  0.597571913833E-03  0.429396487617E-03
  0.305160627581E-03  0.214416110523E-03  0.148900785763E-03  0.102162929368E-03  0.692287866466E-04
 ae wavefunction
  0.107659423120E-02  0.111131685047E-02  0.114715795530E-02  0.118415348326E-02  0.122234052093E-02
  0.126175734018E-02  0.130244343567E-02  0.134443956358E-02  0.138778778126E-02  0.143253148844E-02
  0.147871546942E-02  0.152638593675E-02  0.157559057610E-02  0.162637859264E-02  0.167880075868E-02
  0.173290946288E-02  0.178875876091E-02  0.184640442761E-02  0.190590401079E-02  0.196731688663E-02
  0.203070431670E-02  0.209612950672E-02  0.216365766715E-02  0.223335607546E-02  0.230529414034E-02
  0.237954346782E-02  0.245617792927E-02  0.253527373152E-02  0.261690948894E-02  0.270116629766E-02
  0.278812781203E-02  0.287788032321E-02  0.297051284007E-02  0.306611717246E-02  0.316478801683E-02
  0.326662304431E-02  0.337172299134E-02  0.348019175283E-02  0.359213647793E-02  0.370766766855E-02
  0.382689928060E-02  0.394994882802E-02  0.407693748973E-02  0.420799021947E-02  0.434323585864E-02
  0.448280725223E-02  0.462684136780E-02  0.477547941773E-02  0.492886698461E-02  0.508715414994E-02
  0.525049562623E-02  0.541905089248E-02  0.559298433308E-02  0.577246538028E-02  0.595766866014E-02
  0.614877414225E-02  0.634596729286E-02  0.654943923195E-02  0.675938689390E-02  0.697601319193E-02
  0.719952718639E-02  0.743014425686E-02  0.766808627808E-02  0.791358179976E-02  0.816686623021E-02
  0.842818202394E-02  0.869777887295E-02  0.897591390214E-02  0.926285186810E-02  0.955886536223E-02
  0.986423501724E-02  0.101792497172E-01  0.105042068116E-01  0.108394123328E-01  0.111851812167E-01
  0.115418375268E-01  0.119097146814E-01  0.122891556842E-01  0.126805133571E-01  0.130841505760E-01
  0.135004405089E-01  0.139297668563E-01  0.143725240934E-01  0.148291177135E-01  0.152999644735E-01
  0.157854926391E-01  0.162861422318E-01  0.168023652744E-01  0.173346260373E-01  0.178834012827E-01
  0.184491805083E-01  0.190324661871E-01  0.196337740062E-01  0.202536331001E-01  0.208925862803E-01
  0.215511902594E-01  0.222300158686E-01  0.229296482680E-01  0.236506871478E-01  0.243937469200E-01
  0.251594568996E-01  0.259484614720E-01  0.267614202478E-01  0.275990082008E-01  0.284619157898E-01
  0.293508490600E-01  0.302665297242E-01  0.312096952205E-01  0.321810987438E-01  0.331815092500E-01
  0.342117114295E-01  0.352725056469E-01  0.363647078449E-01  0.374891494086E-01  0.386466769866E-01
  0.398381522667E-01  0.410644517002E-01  0.423264661736E-01  0.436251006201E-01  0.449612735700E-01
  0.463359166322E-01  0.477499739031E-01  0.492044012981E-01  0.507001657982E-01  0.522382446076E-01
  0.538196242151E-01  0.554452993522E-01  0.571162718420E-01  0.588335493301E-01  0.605981438915E-01
  0.624110705032E-01  0.642733453756E-01  0.661859841331E-01  0.681499998340E-01  0.701664008205E-01
  0.722361883883E-01  0.743603542644E-01  0.765398778828E-01  0.787757234457E-01  0.810688367583E-01
  0.834201418243E-01  0.858305371891E-01  0.883008920180E-01  0.908320418923E-01  0.934247843144E-01
  0.960798739005E-01  0.987980172515E-01  0.101579867481E+00  0.104426018390E+00  0.107336998270E+00
  0.110313263310E+00  0.113355190611E+00  0.116463070766E+00  0.119637100009E+00  0.122877371906E+00
  0.126183868571E+00  0.129556451401E+00  0.132994851298E+00  0.136498658380E+00  0.140067311149E+00
  0.143700085119E+00  0.147396080881E+00  0.151154211590E+00  0.154973189882E+00  0.158851514192E+00
  0.162787454480E+00  0.166779037355E+00  0.170824030604E+00  0.174919927122E+00  0.179063928242E+00
  0.183252926498E+00  0.187483487806E+00  0.191751833104E+00  0.196053819466E+00  0.200384920720E+00
  0.204740207613E+00  0.209114327557E+00  0.213501484019E+00  0.217895415614E+00  0.222289374957E+00
  0.226676107377E+00  0.231047829564E+00  0.235396208261E+00  0.239712339121E+00  0.243986725836E+00
  0.248209259714E+00  0.252369199828E+00  0.256455153938E+00  0.260455060354E+00  0.264356170971E+00
  0.268145035680E+00  0.271807488424E+00  0.275328635141E+00  0.278692843906E+00  0.281883737556E+00
  0.284884189149E+00  0.287676320591E+00  0.290241504815E+00  0.292560371905E+00  0.294612819575E+00
  0.296378028456E+00  0.297834482632E+00  0.298959995912E+00  0.299731744333E+00  0.300126305399E+00
  0.300119704583E+00  0.299687469621E+00  0.298804693144E+00  0.297446104182E+00  0.295586149085E+00
  0.293199082389E+00  0.290259068142E+00  0.286740292189E+00  0.282617085875E+00  0.277864061589E+00
  0.272456260537E+00  0.266369313045E+00  0.259579611643E+00  0.252064497101E+00  0.243802457463E+00
  0.234773340047E+00  0.224958576238E+00  0.214341418770E+00  0.202907191031E+00  0.190643547772E+00
  0.177540746419E+00  0.163591927976E+00  0.148793406317E+00  0.133144964429E+00  0.116650155899E+00
  0.993166096879E-01  0.811563358993E-01  0.621860299096E-01  0.424273718445E-01  0.219073179606E-01
  0.658380091254E-03 -0.212811110197E-01 -0.438667628312E-01 -0.670479027131E-01 -0.907673877291E-01
 -0.114961444760E+00 -0.139559541593E+00 -0.164484288026E+00 -0.189651365330E+00 -0.214969483360E+00
 -0.240340367878E+00 -0.265658785825E+00 -0.290812622242E+00 -0.315683027631E+00 -0.340144655671E+00
 -0.364066008017E+00 -0.387309893627E+00 -0.409733999951E+00 -0.431191565210E+00 -0.451532138952E+00
 -0.470602421786E+00 -0.488247179473E+00 -0.504310230380E+00 -0.518635505333E+00 -0.531068177237E+00
 -0.541455855263E+00 -0.549649835587E+00 -0.555506399098E+00 -0.558888145317E+00 -0.559665351058E+00
 -0.557717342710E+00 -0.552933870354E+00 -0.545216472300E+00 -0.534479818482E+00 -0.520653020739E+00
 -0.503680897809E+00 -0.483525182539E+00 -0.460165657822E+00 -0.433601207414E+00 -0.403850766402E+00
 -0.370954155408E+00 -0.334972780780E+00 -0.295990182881E+00 -0.254112412216E+00 -0.209468214261E+00
 -0.162209003448E+00 -0.112508609000E+00 -0.605627792770E-01 -0.658843714327E-02  0.491773134626E-01
  0.106478420610E+00  0.165041341007E+00  0.224576701930E+00  0.284781158497E+00  0.345339461124E+00
  0.405926794441E+00  0.466211520957E+00  0.525858543572E+00  0.584533552262E+00  0.641908266345E+00
  0.697666175026E+00  0.751506987063E+00  0.803146657132E+00  0.852310599218E+00  0.898722499987E+00
  0.942097160122E+00  0.982145126258E+00  0.101858736891E+01  0.105117055687E+01  0.107967619105E+01
  0.110392382683E+01  0.112377154951E+01  0.113911599318E+01  0.114989268583E+01  0.115607668274E+01
  0.115768317720E+01  0.115476776381E+01  0.114742611124E+01  0.113579292042E+01  0.112004013664E+01
  0.110037446601E+01  0.107703428942E+01  0.105028608350E+01  0.102042046972E+01  0.987748008609E+00
  0.952594840321E+00  0.915298271815E+00  0.876202401676E+00  0.835653844256E+00  0.793997629766E+00
  0.751573320865E+00  0.708711386646E+00  0.665729862445E+00  0.622931312071E+00  0.580600103192E+00
  0.539000002752E+00  0.498372100096E+00  0.458933068872E+00  0.420873786618E+00  0.384358337773E+00
  0.349523430832E+00  0.316478259969E+00  0.285304831376E+00  0.256058759067E+00  0.228770511466E+00
  0.203447065556E+00  0.180073902676E+00  0.158617263023E+00  0.139026566782E+00  0.121236908984E+00
  0.105171542000E+00  0.907442723175E-01  0.778617149969E-01  0.664253678381E-01  0.563334857014E-01
  0.474827516011E-01  0.397697533664E-01  0.330922817212E-01  0.273504673536E-01  0.224477718310E-01
  0.182918418084E-01  0.147952299859E-01  0.118759815632E-01  0.945808267600E-02  0.747176780200E-02
  0.585368597835E-02  0.454693004842E-02  0.350093807081E-02  0.267128063291E-02  0.201935149036E-02
  0.151198135913E-02  0.112099571738E-02  0.822737212071E-03  0.597571913833E-03  0.429396487617E-03
  0.305160627581E-03  0.214416110523E-03  0.148900785763E-03  0.102162929368E-03  0.692287866466E-04
 pseudo wavefunction
  0.142174192078E-03  0.146797342105E-03  0.151570825434E-03  0.156499530532E-03  0.161588504821E-03
  0.166842959856E-03  0.172268276658E-03  0.177870011224E-03  0.183653900221E-03  0.189625866855E-03
  0.195792026942E-03  0.202158695167E-03  0.208732391556E-03  0.215519848146E-03  0.222528015885E-03
  0.229764071750E-03  0.237235426093E-03  0.244949730232E-03  0.252914884287E-03  0.261139045273E-03
  0.269630635446E-03  0.278398350936E-03  0.287451170648E-03  0.296798365458E-03  0.306449507710E-03
  0.316414481014E-03  0.326703490371E-03  0.337327072623E-03  0.348296107245E-03  0.359621827483E-03
  0.371315831860E-03  0.383390096057E-03  0.395856985169E-03  0.408729266377E-03  0.422020122017E-03
  0.435743163080E-03  0.449912443154E-03  0.464542472814E-03  0.479648234480E-03  0.495245197765E-03
  0.511349335313E-03  0.527977139159E-03  0.545145637617E-03  0.562872412717E-03  0.581175618213E-03
  0.600073998173E-03  0.619586906174E-03  0.639734325121E-03  0.660536887713E-03  0.682015897572E-03
  0.704193351057E-03  0.727091959794E-03  0.750735173931E-03  0.775147206155E-03  0.800353056486E-03
  0.826378537881E-03  0.853250302667E-03  0.880995869833E-03  0.909643653216E-03  0.939222990595E-03
  0.969764173736E-03  0.100129847941E-02  0.103385820144E-02  0.106747668374E-02  0.110218835448E-02
  0.113802876136E-02  0.117503460797E-02  0.121324379142E-02  0.125269544112E-02  0.129342995887E-02
  0.133548906021E-02  0.137891581718E-02  0.142375470237E-02  0.147005163451E-02  0.151785402549E-02
  0.156721082886E-02  0.161817259004E-02  0.167079149801E-02  0.172512143879E-02  0.178121805063E-02
  0.183913878095E-02  0.189894294518E-02  0.196069178753E-02  0.202444854366E-02  0.209027850546E-02
  0.215824908790E-02  0.222842989808E-02  0.230089280648E-02  0.237571202057E-02  0.245296416079E-02
  0.253272833902E-02  0.261508623958E-02  0.270012220287E-02  0.278792331171E-02  0.287857948056E-02
  0.297218354753E-02  0.306883136947E-02  0.316862192010E-02  0.327165739139E-02  0.337804329811E-02
  0.348788858596E-02  0.360130574305E-02  0.371841091509E-02  0.383932402428E-02  0.396416889215E-02
  0.409307336624E-02  0.422616945104E-02  0.436359344315E-02  0.450548607072E-02  0.465199263762E-02
  0.480326317209E-02  0.495945258039E-02  0.512072080531E-02  0.528723298992E-02  0.545915964657E-02
  0.563667683144E-02  0.581996632471E-02  0.600921581661E-02  0.620461909949E-02  0.640637626614E-02
  0.661469391456E-02  0.682978535932E-02  0.705187084988E-02  0.728117779585E-02  0.751794099973E-02
  0.776240289705E-02  0.801481380439E-02  0.827543217543E-02  0.854452486522E-02  0.882236740317E-02
  0.910924427476E-02  0.940544921239E-02  0.971128549575E-02  0.100270662618E-01  0.103531148249E-01
  0.106897650071E-01  0.110373614794E-01  0.113962601141E-01  0.117668283477E-01  0.121494455569E-01
  0.125445034458E-01  0.129524064456E-01  0.133735721277E-01  0.138084316301E-01  0.142574300967E-01
  0.147210271320E-01  0.151996972697E-01  0.156939304561E-01  0.162042325504E-01  0.167311258393E-01
  0.172751495694E-01  0.178368604965E-01  0.184168334520E-01  0.190156619279E-01  0.196339586806E-01
  0.202723563536E-01  0.209315081205E-01  0.216120883483E-01  0.223147932820E-01  0.230403417506E-01
  0.237894758963E-01  0.245629619260E-01  0.253615908873E-01  0.261861794682E-01  0.270375708236E-01
  0.279166354255E-01  0.288242719425E-01  0.297614081449E-01  0.307290018392E-01  0.317280418311E-01
  0.327595489193E-01  0.338245769192E-01  0.349242137190E-01  0.360595823678E-01  0.372318421975E-01
  0.384421899790E-01  0.396918611130E-01  0.409821308579E-01  0.423143155937E-01  0.436897741247E-01
  0.451099090203E-01  0.465761679962E-01  0.480900453355E-01  0.496530833523E-01  0.512668738968E-01
  0.529330599042E-01  0.546533369875E-01  0.564294550756E-01  0.582632200966E-01  0.601564957079E-01
  0.621112050730E-01  0.641293326868E-01  0.662129262481E-01  0.683640985817E-01  0.705850296089E-01
  0.728779683682E-01  0.752452350842E-01  0.776892232872E-01  0.802124019811E-01  0.828173178606E-01
  0.855065975768E-01  0.882829500498E-01  0.911491688282E-01  0.941081344934E-01  0.971628171072E-01
  0.100316278700E+00  0.103571675801E+00  0.106932261998E+00  0.110401390535E+00  0.113982516936E+00
  0.117679201656E+00  0.121495112739E+00  0.125434028505E+00  0.129499840227E+00  0.133696554814E+00
  0.138028297478E+00  0.142499314382E+00  0.147113975250E+00  0.151876775935E+00  0.156792340923E+00
  0.161865425758E+00  0.167100919379E+00  0.172503846331E+00  0.178079368847E+00  0.183832788759E+00
  0.189769549220E+00  0.195895236210E+00  0.202215579774E+00  0.208736454974E+00  0.215463882497E+00
  0.222404028889E+00  0.229563206347E+00  0.236947872016E+00  0.244564626747E+00  0.252420213213E+00
  0.260521513344E+00  0.268875544971E+00  0.277489457599E+00  0.286370527210E+00  0.295526149984E+00
  0.304963834812E+00  0.314691194489E+00  0.324715935417E+00  0.335045845680E+00  0.345688781324E+00
  0.356652650635E+00  0.367945396240E+00  0.379574974791E+00  0.391549334007E+00  0.403876386817E+00
  0.416563982317E+00  0.429619873252E+00  0.443051679704E+00  0.456866848630E+00  0.471072608882E+00
  0.485675921331E+00  0.500683423645E+00  0.516101369305E+00  0.531935560367E+00  0.548191273475E+00
  0.564873178619E+00  0.581985250072E+00  0.599530668965E+00  0.617511716912E+00  0.635929660088E+00
  0.654784623191E+00  0.674075452668E+00  0.693799568651E+00  0.713952805041E+00  0.734529237221E+00
  0.755520996958E+00  0.776918074101E+00  0.798708104802E+00  0.820876146132E+00  0.843404437085E+00
  0.866272146222E+00  0.889455106421E+00  0.912925537497E+00  0.936651757851E+00  0.960597886684E+00
  0.984723538831E+00  0.100898351485E+01  0.103332748965E+01  0.105769970365E+01  0.108203866142E+01
  0.110627684354E+01  0.113034043861E+01  0.115414910332E+01  0.117761575980E+01  0.120064644076E+01
  0.122314019404E+01  0.124498905986E+01  0.126607813480E+01  0.128628573821E+01  0.130548369709E+01
  0.132353776650E+01  0.134030820230E+01  0.135565050264E+01  0.136941633293E+01  0.138145464673E+01
  0.139161301060E+01  0.139973913558E+01  0.140568261000E+01  0.140929681781E+01  0.141044101395E+01
  0.140898251167E+01  0.140479891713E+01  0.139778032339E+01  0.138783134925E+01  0.137487287844E+01
  0.135884332280E+01  0.133969919993E+01  0.131741478429E+01  0.129198056347E+01  0.126340021241E+01
  0.123168579438E+01  0.119685091437E+01  0.115890159751E+01  0.111782475325E+01  0.107357422481E+01
  0.102608997600E+01  0.975571098551E+00  0.922364219711E+00  0.866812643070E+00  0.000000000000E+00
  0.000000000000E+00  0.000000000000E+00  0.000000000000E+00  0.000000000000E+00  0.000000000000E+00
  0.000000000000E+00  0.000000000000E+00  0.000000000000E+00  0.000000000000E+00  0.000000000000E+00
  0.000000000000E+00  0.000000000000E+00  0.000000000000E+00  0.000000000000E+00  0.000000000000E+00
  0.000000000000E+00  0.000000000000E+00  0.000000000000E+00  0.000000000000E+00  0.000000000000E+00
  0.000000000000E+00  0.000000000000E+00  0.000000000000E+00  0.000000000000E+00  0.000000000000E+00
  0.000000000000E+00  0.000000000000E+00  0.000000000000E+00  0.000000000000E+00  0.000000000000E+00
  0.000000000000E+00  0.000000000000E+00  0.000000000000E+00  0.000000000000E+00  0.000000000000E+00
  0.000000000000E+00  0.000000000000E+00  0.000000000000E+00  0.000000000000E+00  0.000000000000E+00
  0.000000000000E+00  0.000000000000E+00  0.000000000000E+00  0.000000000000E+00  0.000000000000E+00
  0.000000000000E+00  0.000000000000E+00  0.000000000000E+00  0.000000000000E+00  0.000000000000E+00
 ae wavefunction
  0.123947686079E-02  0.127945281627E-02  0.132071647786E-02  0.136330922027E-02  0.140727374105E-02
  0.145265410242E-02  0.149949577435E-02  0.154784567919E-02  0.159775223734E-02  0.164926541464E-02
  0.170243677103E-02  0.175731951073E-02  0.181396853400E-02  0.187244049047E-02  0.193279383399E-02
  0.199508887935E-02  0.205938786053E-02  0.212575499079E-02  0.219425652460E-02  0.226496082140E-02
  0.233793841130E-02  0.241326206268E-02  0.249100685197E-02  0.257125023534E-02  0.265407212263E-02
  0.273955495343E-02  0.282778377546E-02  0.291884632518E-02  0.301283311086E-02  0.310983749804E-02
  0.320995579748E-02  0.331328735569E-02  0.341993464809E-02  0.353000337483E-02  0.364360255937E-02
  0.376084464995E-02  0.388184562385E-02  0.400672509466E-02  0.413560642261E-02  0.426861682789E-02
  0.440588750730E-02  0.454755375396E-02  0.469375508046E-02  0.484463534531E-02  0.500034288288E-02
  0.516103063683E-02  0.532685629714E-02  0.549798244079E-02  0.567457667616E-02  0.585681179122E-02
  0.604486590558E-02  0.623892262650E-02  0.643917120875E-02  0.664580671870E-02  0.685903020231E-02
  0.707904885750E-02  0.730607621049E-02  0.754033229660E-02  0.778204384520E-02  0.803144446907E-02
  0.828877485819E-02  0.855428297778E-02  0.882822427090E-02  0.911086186547E-02  0.940246678568E-02
  0.970331816795E-02  0.100137034812E-01  0.103339187517E-01  0.106642687922E-01  0.110050674355E-01
  0.113566377723E-01  0.117193123931E-01  0.120934336345E-01  0.124793538298E-01  0.128774355626E-01
  0.132880519251E-01  0.137115867801E-01  0.141484350252E-01  0.145990028622E-01  0.150637080678E-01
  0.155429802679E-01  0.160372612146E-01  0.165470050643E-01  0.170726786591E-01  0.176147618082E-01
  0.181737475714E-01  0.187501425422E-01  0.193444671317E-01  0.199572558509E-01  0.205890575931E-01
  0.212404359135E-01  0.219119693058E-01  0.226042514768E-01  0.233178916153E-01  0.240535146562E-01
  0.248117615386E-01  0.255932894563E-01  0.263987720995E-01  0.272288998869E-01  0.280843801863E-01
  0.289659375229E-01  0.298743137724E-01  0.308102683391E-01  0.317745783144E-01  0.327680386177E-01
  0.337914621124E-01  0.348456797001E-01  0.359315403862E-01  0.370499113168E-01  0.382016777833E-01
  0.393877431918E-01  0.406090289937E-01  0.418664745750E-01  0.431610371000E-01  0.444936913056E-01
  0.458654292426E-01  0.472772599586E-01  0.487302091194E-01  0.502253185627E-01  0.517636457792E-01
  0.533462633168E-01  0.549742580989E-01  0.566487306556E-01  0.583707942555E-01  0.601415739364E-01
  0.619622054242E-01  0.638338339332E-01  0.657576128410E-01  0.677347022273E-01  0.697662672697E-01
  0.718534764849E-01  0.739974998083E-01  0.761995064980E-01  0.784606628558E-01  0.807821297515E-01
  0.831650599393E-01  0.856105951546E-01  0.881198629764E-01  0.906939734441E-01  0.933340154129E-01
  0.960410526339E-01  0.988161195438E-01  0.101660216749E+00  0.104574306186E+00  0.107559305946E+00
  0.110616084736E+00  0.113745455981E+00  0.116948171515E+00  0.120224914881E+00  0.123576294188E+00
  0.127002834528E+00  0.130504969927E+00  0.134083034803E+00  0.137737254929E+00  0.141467737858E+00
  0.145274462822E+00  0.149157270048E+00  0.153115849513E+00  0.157149729088E+00  0.161258262071E+00
  0.165440614090E+00  0.169695749359E+00  0.174022416274E+00  0.178419132347E+00  0.182884168448E+00
  0.187415532372E+00  0.192010951714E+00  0.196667856044E+00  0.201383358410E+00  0.206154236145E+00
  0.210976911010E+00  0.215847428682E+00  0.220761437609E+00  0.225714167266E+00  0.230700405831E+00
  0.235714477347E+00  0.240750218400E+00  0.245800954384E+00  0.250859475423E+00  0.255918012020E+00
  0.260968210546E+00  0.266001108644E+00  0.271007110699E+00  0.275975963478E+00  0.280896732106E+00
  0.285757776536E+00  0.290546728692E+00  0.295250470495E+00  0.299855112975E+00  0.304345976730E+00
  0.308707573973E+00  0.312923592467E+00  0.316976881638E+00  0.320849441221E+00  0.324522412757E+00
  0.327976074367E+00  0.331189839154E+00  0.334142257723E+00  0.336811025214E+00  0.339172993378E+00
  0.341204188168E+00  0.342879833391E+00  0.344174380959E+00  0.345061548319E+00  0.345514363640E+00
  0.345505219371E+00  0.345005934767E+00  0.343987828028E+00  0.342421798654E+00  0.340278420649E+00
  0.337528047184E+00  0.334140927314E+00  0.330087335312E+00  0.325337713177E+00  0.319862826769E+00
  0.313633936048E+00  0.306622979753E+00  0.298802774807E+00  0.290147230655E+00  0.280631578587E+00
  0.270232616010E+00  0.258928965474E+00  0.246701348088E+00  0.233532870826E+00  0.219409326976E+00
  0.204319508825E+00  0.188255531427E+00  0.171213166060E+00  0.153192181708E+00  0.134196692631E+00
  0.114235509747E+00  0.933224931973E-01  0.714769030586E-01  0.487237447375E-01  0.250941050745E-01
  0.625474740592E-03 -0.246379478875E-01 -0.506449763665E-01 -0.773371841201E-01 -0.104648684678E+00
 -0.132505946833E+00 -0.160827645441E+00 -0.189524546789E+00 -0.218499426610E+00 -0.247647019978E+00
 -0.276854006021E+00 -0.305999036406E+00 -0.334952823396E+00 -0.363578309142E+00 -0.391730939167E+00
 -0.419259059340E+00 -0.446004444934E+00 -0.471802958727E+00 -0.496485325777E+00 -0.519878010156E+00
 -0.541804183214E+00 -0.562084777860E+00 -0.580539627800E+00 -0.596988690624E+00 -0.611253351835E+00
 -0.623157803830E+00 -0.632530490699E+00 -0.639205607862E+00 -0.643024644217E+00 -0.643837953651E+00
 -0.641506343191E+00 -0.635902664255E+00 -0.626913393955E+00 -0.614440193141E+00 -0.598401427495E+00
 -0.578733637660E+00 -0.555392944041E+00 -0.528356370765E+00 -0.497623072836E+00 -0.463215448918E+00
 -0.425180121382E+00 -0.383588763085E+00 -0.338538750214E+00 -0.290153617716E+00 -0.238583295173E+00
 -0.184004100449E+00 -0.126618471021E+00 -0.666544175010E-01 -0.436469052956E-02  0.599743388722E-01
  0.126064075162E+00  0.193585352011E+00  0.262200323217E+00  0.331554579770E+00  0.401279510802E+00
  0.470994979778E+00  0.540312470349E+00  0.608838949077E+00  0.676181750433E+00  0.741954610076E+00
  0.805784268204E+00  0.867315574818E+00  0.926211486605E+00  0.982145216960E+00  0.103478734879E+01
  0.108379763740E+01  0.112883042271E+01  0.116955159351E+01  0.120565619732E+01  0.123687895261E+01
  0.126299795010E+01  0.128383519381E+01  0.129925661327E+01  0.130917243867E+01  0.131353788631E+01
  0.131235378938E+01  0.130566679469E+01  0.129356884058E+01  0.127619576883E+01  0.125372502873E+01
  0.122637252477E+01  0.119438870687E+01  0.115805401854E+01  0.111767382963E+01  0.107357297204E+01
  0.102608997600E+01  0.975571098551E+00  0.922364219711E+00  0.866812643070E+00  0.000000000000E+00
  0.000000000000E+00  0.000000000000E+00  0.000000000000E+00  0.000000000000E+00  0.000000000000E+00
  0.000000000000E+00  0.000000000000E+00  0.000000000000E+00  0.000000000000E+00  0.000000000000E+00
  0.000000000000E+00  0.000000000000E+00  0.000000000000E+00  0.000000000000E+00  0.000000000000E+00
  0.000000000000E+00  0.000000000000E+00  0.000000000000E+00  0.000000000000E+00  0.000000000000E+00
  0.000000000000E+00  0.000000000000E+00  0.000000000000E+00  0.000000000000E+00  0.000000000000E+00
  0.000000000000E+00  0.000000000000E+00  0.000000000000E+00  0.000000000000E+00  0.000000000000E+00
  0.000000000000E+00  0.000000000000E+00  0.000000000000E+00  0.000000000000E+00  0.000000000000E+00
  0.000000000000E+00  0.000000000000E+00  0.000000000000E+00  0.000000000000E+00  0.000000000000E+00
  0.000000000000E+00  0.000000000000E+00  0.000000000000E+00  0.000000000000E+00  0.000000000000E+00
  0.000000000000E+00  0.000000000000E+00  0.000000000000E+00  0.000000000000E+00  0.000000000000E+00
 pseudo wavefunction
  0.677635619564E-08  0.722422183019E-08  0.770168797866E-08  0.821071101002E-08  0.875337659432E-08
  0.933190824856E-08  0.994867644728E-08  0.106062083354E-07  0.113071980829E-07  0.120545179239E-07
  0.128512299253E-07  0.137005985335E-07  0.146061039498E-07  0.155714563904E-07  0.166006112886E-07
  0.176977855019E-07  0.188674745897E-07  0.201144712339E-07  0.214438848762E-07  0.228611626536E-07
  0.243721117172E-07  0.259829230268E-07  0.277001967175E-07  0.295309691432E-07  0.314827417072E-07
  0.335635115984E-07  0.357818045592E-07  0.381467098186E-07  0.406679173346E-07  0.433557574975E-07
  0.462212434579E-07  0.492761162518E-07  0.525328929085E-07  0.560049177373E-07  0.597064170050E-07
  0.636525572263E-07  0.678595073071E-07  0.723445047946E-07  0.771259265069E-07  0.822233638297E-07
  0.876577029898E-07  0.934512106348E-07  0.996276250679E-07  0.106212253513E-06  0.113232075809E-06
  0.120715854957E-06  0.128694254971E-06  0.137199966524E-06  0.146267840894E-06  0.155935032760E-06
  0.166241152444E-06  0.177228428207E-06  0.188941879275E-06  0.201429500301E-06  0.214742458020E-06
  0.228935300893E-06  0.244066182620E-06  0.260197100415E-06  0.277394149034E-06  0.295727791587E-06
  0.315273148261E-06  0.336110304107E-06  0.358324637186E-06  0.382007168391E-06  0.407254934402E-06
  0.434171385272E-06  0.462866808311E-06  0.493458779971E-06  0.526072647600E-06  0.560842043041E-06
  0.597909430170E-06  0.637426688625E-06  0.679555736115E-06  0.724469191856E-06  0.772351083854E-06
  0.823397602941E-06  0.877817906639E-06  0.935834976153E-06  0.997686530009E-06  0.106362599807E-05
  0.113392355994E-05  0.120886725197E-05  0.128876414745E-05  0.137394161481E-05  0.146474865895E-05
  0.156155735123E-05  0.166476435398E-05  0.177479254578E-05  0.189209275409E-05  0.201714560248E-05
  0.215046347988E-05  0.229259264002E-05  0.244411543957E-05  0.260565272428E-05  0.277786637274E-05
  0.296146200834E-05  0.315719189033E-05  0.336585799615E-05  0.358831530727E-05  0.382547531231E-05
  0.407830974167E-05  0.434785454890E-05  0.463521415532E-05  0.494156597503E-05  0.526816523909E-05
  0.561635013842E-05  0.598754730667E-05  0.638327766538E-05  0.680516265545E-05  0.725493088047E-05
  0.773442518901E-05  0.824561022501E-05  0.879058047715E-05  0.937156886012E-05  0.999095586302E-05
  0.106512793023E-04  0.113552447194E-04  0.121057364651E-04  0.129058295167E-04  0.137588020760E-04
  0.146681489999E-04  0.156375961183E-04  0.166711154983E-04  0.177729417167E-04  0.189475892085E-04
  0.201998707610E-04  0.215349172303E-04  0.229581985604E-04  0.244755461917E-04  0.260931769491E-04
  0.278177185093E-04  0.296562365503E-04  0.316162636953E-04  0.337058303676E-04  0.359334976853E-04
  0.383083925288E-04  0.408402449240E-04  0.435394278970E-04  0.464169999595E-04  0.494847504020E-04
  0.527552475784E-04  0.562418903802E-04  0.599589631094E-04  0.639216939772E-04  0.681463174652E-04
  0.726501408046E-04  0.774516148465E-04  0.825704096114E-04  0.880274948266E-04  0.938452257824E-04
  0.100047434856E-03  0.106659529074E-03  0.113708594126E-03  0.121223505227E-03  0.129235045309E-03
  0.137776031013E-03  0.146881446984E-03  0.156588589039E-03  0.166937216771E-03  0.177969716224E-03
  0.189731273299E-03  0.202270058589E-03  0.215637424408E-03  0.229888114805E-03  0.245080489425E-03
  0.261276762121E-03  0.278543255287E-03  0.296950670953E-03  0.316574379724E-03  0.337494728756E-03
  0.359797370003E-03  0.383573610065E-03  0.408920783060E-03  0.435942648019E-03  0.464749812416E-03
  0.495460183531E-03  0.528199449485E-03  0.563101591861E-03  0.600309431986E-03  0.639975213070E-03
  0.682261220525E-03  0.727340442963E-03  0.775397276506E-03  0.826628275225E-03  0.881242950700E-03
  0.939464623877E-03  0.100153133261E-02  0.106769679848E-02  0.113823145673E-02  0.121342355333E-02
  0.129358031354E-02  0.137902918654E-02  0.147011917101E-02  0.156722222670E-02  0.167073477775E-02
  0.178107931326E-02  0.189870609148E-02  0.202409495416E-02  0.215775725789E-02  0.230023792984E-02
  0.245211765568E-02  0.261401520795E-02  0.278658992344E-02  0.297054433900E-02  0.316662699533E-02
  0.337563541908E-02  0.359841929417E-02  0.383588383360E-02  0.408899336392E-02  0.435877513495E-02
  0.464632336807E-02  0.495280355704E-02  0.527945703611E-02  0.562760583056E-02  0.599865780597E-02
  0.639411213283E-02  0.681556508392E-02  0.726471618285E-02  0.774337472234E-02  0.825346667198E-02
  0.879704199548E-02  0.937628239825E-02  0.999350952648E-02  0.106511936395E-01  0.113519627773E-01
  0.120986124460E-01  0.128941158428E-01  0.137416346434E-01  0.146445303735E-01  0.156063763865E-01
  0.166309704663E-01  0.177223480767E-01  0.188847962734E-01  0.201228682958E-01  0.214413988502E-01
  0.228455200951E-01  0.243406783343E-01  0.259326514189E-01  0.276275668522E-01  0.294319205873E-01
  0.313525964964E-01  0.333968864824E-01  0.355725111916E-01  0.378876412743E-01  0.403509191230E-01
  0.429714810018E-01  0.457589794607E-01  0.487236059030E-01  0.518761131506E-01  0.552278378191E-01
  0.587907222828E-01  0.625773359678E-01  0.666008956706E-01  0.708752845486E-01  0.754150693740E-01
  0.802355155792E-01  0.853525995569E-01  0.907830175952E-01  0.965441907499E-01  0.102654264857E+00
  0.109132104794E+00  0.115997281968E+00  0.123270053925E+00  0.130971334795E+00  0.139122655188E+00
  0.147746109989E+00  0.156864292351E+00  0.166500212006E+00  0.176677195887E+00  0.187418768837E+00
  0.198748512052E+00  0.210689896747E+00  0.223266090374E+00  0.236499732611E+00  0.250412678279E+00
  0.265025704248E+00  0.280358177476E+00  0.296427681373E+00  0.313249597893E+00  0.330836643078E+00
  0.349198354232E+00  0.368340527566E+00  0.388264605991E+00  0.408967017909E+00  0.430438469215E+00
  0.452663192521E+00  0.475618159771E+00  0.499272266974E+00  0.523585502848E+00  0.548508116731E+00
  0.573979805155E+00  0.599928941075E+00  0.626271874755E+00  0.652912340729E+00  0.679741010913E+00
  0.706635239589E+00  0.733459051361E+00  0.760063427792E+00  0.786286951812E+00  0.811956870212E+00
  0.836890632919E+00  0.860897961951E+00  0.883783491753E+00  0.905350004437E+00  0.925402256637E+00
  0.943751357373E+00  0.960219606855E+00  0.974645642945E+00  0.986889664110E+00  0.996838404958E+00
  0.100440943428E+01  0.100955422915E+01  0.101225935861E+01  0.101254499610E+01  0.101045988700E+01
  0.100607184514E+01  0.999452868275E+00  0.990658079673E+00  0.979697960606E+00  0.966503781248E+00
  0.950915604569E+00  0.932963838356E+00  0.912798123130E+00  0.890585456604E+00  0.866502319806E+00
  0.840732903579E+00  0.813467369092E+00  0.784900139488E+00  0.755228215538E+00  0.724649507087E+00
  0.693361158873E+00  0.661557861218E+00  0.629430136316E+00  0.597162609800E+00  0.564932290002E+00
  0.532906928013E+00  0.501243458720E+00  0.470086683689E+00  0.439568202965E+00  0.409805680948E+00
  0.380902477544E+00  0.352947650945E+00  0.326016307993E+00  0.300170250779E+00  0.275458847007E+00
  0.251920038634E+00  0.229581399161E+00  0.208461155074E+00  0.188569100977E+00  0.169907359797E+00
  0.152470966888E+00  0.136248286153E+00  0.121221292823E+00  0.107365776811E+00  0.946515292503E-01
  0.830425723572E-01  0.724974805649E-01  0.629698226975E-01  0.544087347694E-01  0.467596145173E-01
  0.399649144083E-01  0.339650006920E-01  0.286990420017E-01  0.241058912578E-01  0.201249280373E-01
  0.166968339963E-01  0.137642803452E-01  0.112725130113E-01  0.916982741956E-02  0.740793044972E-02
  0.594219188888E-02  0.473179153229E-02  0.373977098768E-02  0.293300127412E-02  0.228207855311E-02
 ae wavefunction
 -0.451981104250E-06 -0.479427153534E-06 -0.508398850896E-06 -0.538989394083E-06 -0.571297334879E-06
 -0.605426915816E-06 -0.641488428041E-06 -0.679598583748E-06 -0.719880923325E-06 -0.762466234859E-06
 -0.807493009336E-06 -0.855107919171E-06 -0.905466326433E-06 -0.958732823594E-06 -0.101508180983E-05
 -0.107469809839E-05 -0.113777756691E-05 -0.120452784628E-05 -0.127516905200E-05 -0.134993456255E-05
 -0.142907184753E-05 -0.151284334653E-05 -0.160152740354E-05 -0.169541926200E-05 -0.179483212105E-05
 -0.190009825997E-05 -0.201157023326E-05 -0.212962214216E-05 -0.225465098669E-05 -0.238707810453E-05
 -0.252735069977E-05 -0.267594347263E-05 -0.283336034931E-05 -0.300013632571E-05 -0.317683942725E-05
 -0.336407279523E-05 -0.356247690651E-05 -0.377273193581E-05 -0.399556026958E-05 -0.423172918169E-05
 -0.448205368098E-05 -0.474739954163E-05 -0.502868652938E-05 -0.532689183520E-05 -0.564305372980E-05
 -0.597827545441E-05 -0.633372936192E-05 -0.671066132534E-05 -0.711039542968E-05 -0.753433897009E-05
 -0.798398776781E-05 -0.846093183105E-05 -0.896686138544E-05 -0.950357328524E-05 -0.100729778495E-04
 -0.106771061273E-04 -0.113181176444E-04 -0.119983086400E-04 -0.127201208426E-04 -0.134861508070E-04
 -0.142991598573E-04 -0.151620846710E-04 -0.160780485446E-04 -0.170503733868E-04 -0.180825924860E-04
 -0.191784640970E-04 -0.203419859148E-04 -0.215774104548E-04 -0.228892614670E-04 -0.242823513551E-04
 -0.257617997528E-04 -0.273330532877E-04 -0.290019066114E-04 -0.307745247684E-04 -0.326574670297E-04
 -0.346577122305E-04 -0.367826857484E-04 -0.390402881979E-04 -0.414389259738E-04 -0.439875437396E-04
 -0.466956590082E-04 -0.495733989024E-04 -0.526315393059E-04 -0.558815464717E-04 -0.593356213032E-04
 -0.630067464457E-04 -0.669087363834E-04 -0.710562907056E-04 -0.754650507707E-04 -0.801516599416E-04
 -0.851338276595E-04 -0.904303975502E-04 -0.960614198481E-04 -0.102048228378E-03 -0.108413522396E-03
 -0.115181453578E-03 -0.122377718464E-03 -0.130029656722E-03 -0.138166355547E-03 -0.146818760593E-03
 -0.156019793844E-03 -0.165804478807E-03 -0.176210073516E-03 -0.187276211778E-03 -0.199045053172E-03
 -0.211561442318E-03 -0.224873078016E-03 -0.239030692721E-03 -0.254088243106E-03 -0.270103112285E-03
 -0.287136324368E-03 -0.305252772149E-03 -0.324521458585E-03 -0.345015752937E-03 -0.366813662422E-03
 -0.389998120164E-03 -0.414657290534E-03 -0.440884892697E-03 -0.468780543503E-03 -0.498450120770E-03
 -0.530006148044E-03 -0.563568202118E-03 -0.599263344453E-03 -0.637226577858E-03 -0.677601329795E-03
 -0.720539963662E-03 -0.766204319626E-03 -0.814766286485E-03 -0.866408406199E-03 -0.921324512750E-03
 -0.979720407090E-03 -0.104181456996E-02 -0.110783891449E-02 -0.117803958047E-02 -0.125267777235E-02
 -0.133203064296E-02 -0.141639222524E-02 -0.150607441392E-02 -0.160140799965E-02 -0.170274375770E-02
 -0.181045359368E-02 -0.192493174862E-02 -0.204659606581E-02 -0.217588932195E-02 -0.231328062495E-02
 -0.245926688094E-02 -0.261437433291E-02 -0.277916017351E-02 -0.295421423430E-02 -0.314016075385E-02
 -0.333766022711E-02 -0.354741133795E-02 -0.377015297717E-02 -0.400666634785E-02 -0.425777715959E-02
 -0.452435791335E-02 -0.480733027794E-02 -0.510766755926E-02 -0.542639726271E-02 -0.576460374899E-02
 -0.612343098308E-02 -0.650408537537E-02 -0.690783871372E-02 -0.733603118430E-02 -0.779007447823E-02
 -0.827145498047E-02 -0.878173703635E-02 -0.932256628988E-02 -0.989567308723E-02 -0.105028759372E-01
 -0.111460850190E-01 -0.118273057268E-01 -0.125486422379E-01 -0.133123010898E-01 -0.141205947507E-01
 -0.149759451632E-01 -0.158808872413E-01 -0.168380722971E-01 -0.178502713699E-01 -0.189203784296E-01
 -0.200514134210E-01 -0.212465251145E-01 -0.225089937218E-01 -0.238422332362E-01 -0.252497934469E-01
 -0.267353615787E-01 -0.283027634993E-01 -0.299559644340E-01 -0.316990691212E-01 -0.335363213391E-01
 -0.354721027254E-01 -0.375109308101E-01 -0.396574561712E-01 -0.419164586225E-01 -0.442928423313E-01
 -0.467916297631E-01 -0.494179543393E-01 -0.521770516936E-01 -0.550742493999E-01 -0.581149550477E-01
 -0.613046425268E-01 -0.646488363850E-01 -0.681530941155E-01 -0.718229862252E-01 -0.756640739368E-01
 -0.796818843719E-01 -0.838818830621E-01 -0.882694436374E-01 -0.928498145421E-01 -0.976280826311E-01
 -0.102609133509E+00 -0.107797608474E+00 -0.113197857959E+00 -0.118813891337E+00 -0.124649323024E+00
 -0.130707314791E+00 -0.136990514236E+00 -0.143500989391E+00 -0.150240159472E+00 -0.157208721807E+00
 -0.164406575017E+00 -0.171832738572E+00 -0.179485268882E+00 -0.187361172153E+00 -0.195456314278E+00
 -0.203765328104E+00 -0.212281518527E+00 -0.220996765891E+00 -0.229901428344E+00 -0.238984243873E+00
 -0.248232232903E+00 -0.257630602502E+00 -0.267162653369E+00 -0.276809690987E+00 -0.286550942361E+00
 -0.296363479797E+00 -0.306222153012E+00 -0.316099530263E+00 -0.325965848577E+00 -0.335788971734E+00
 -0.345534353546E+00 -0.355165002783E+00 -0.364641446048E+00 -0.373921686322E+00 -0.382961158235E+00
 -0.391712686090E+00 -0.400126455902E+00 -0.408150016879E+00 -0.415728329302E+00 -0.422803872352E+00
 -0.429316818734E+00 -0.435205272001E+00 -0.440405554344E+00 -0.444852528783E+00 -0.448479942623E+00
 -0.451220786300E+00 -0.453007667368E+00 -0.453773203197E+00 -0.453450435530E+00 -0.451973268355E+00
 -0.449276928417E+00 -0.445298445794E+00 -0.439977151292E+00 -0.433255187099E+00 -0.425078027159E+00
 -0.415395004466E+00 -0.404159842239E+00 -0.391331186534E+00 -0.376873137777E+00 -0.360755778559E+00
 -0.342955694851E+00 -0.323456487549E+00 -0.302249270482E+00 -0.279333150658E+00 -0.254715685387E+00
 -0.228413310268E+00 -0.200451730530E+00 -0.170866267813E+00 -0.139702152575E+00 -0.107014752622E+00
 -0.728697275544E-01 -0.373430998875E-01 -0.521235601307E-03  0.374992699753E-01  0.766118008034E-01
  0.116700018437E+00  0.157638241895E+00  0.199291901700E+00  0.241518068741E+00  0.284166078996E+00
  0.327078310993E+00  0.370091227939E+00  0.413036857752E+00  0.455744924265E+00  0.498045727600E+00
  0.539773412610E+00  0.580768282790E+00  0.620875784904E+00  0.659940326738E+00  0.697795725163E+00
  0.734258704566E+00  0.769131461823E+00  0.802212104755E+00  0.833305795377E+00  0.862231394333E+00
  0.888823727757E+00  0.912933899067E+00  0.934429432555E+00  0.953194881827E+00  0.969132894427E+00
  0.982165499183E+00  0.992235357303E+00  0.999306768519E+00  0.100336630768E+01  0.100442303333E+01
  0.100250827235E+01  0.997675018181E+00  0.989996993480E+00  0.979567439520E+00  0.966497693634E+00
  0.950915604569E+00  0.932963838356E+00  0.912798123130E+00  0.890585456604E+00  0.866502319806E+00
  0.840732903579E+00  0.813467369092E+00  0.784900139488E+00  0.755228215538E+00  0.724649507087E+00
  0.693361158873E+00  0.661557861218E+00  0.629430136316E+00  0.597162609800E+00  0.564932290002E+00
  0.532906928013E+00  0.501243458720E+00  0.470086683689E+00  0.439568202965E+00  0.409805680948E+00
  0.380902477544E+00  0.352947650945E+00  0.326016307993E+00  0.300170250779E+00  0.275458847007E+00
  0.251920038634E+00  0.229581399161E+00  0.208461155074E+00  0.188569100977E+00  0.169907359797E+00
  0.152470966888E+00  0.136248286153E+00  0.121221292823E+00  0.107365776811E+00  0.946515292503E-01
  0.830425723572E-01  0.724974805649E-01  0.629698226975E-01  0.544087347694E-01  0.467596145173E-01
  0.399649144083E-01  0.339650006920E-01  0.286990420017E-01  0.241058912578E-01  0.201249280373E-01
  0.166968339963E-01  0.137642803452E-01  0.112725130113E-01  0.916982741956E-02  0.740793044972E-02
  0.594219188888E-02  0.473179153229E-02  0.373977098768E-02  0.293300127412E-02  0.228207855311E-02
 pseudo wavefunction
  0.949322754125E-08  0.101206577196E-07  0.107895562632E-07  0.115026639158E-07  0.122629025634E-07
  0.130733872065E-07  0.139374387234E-07  0.148585974772E-07  0.158406378221E-07  0.168875835685E-07
  0.180037244700E-07  0.191936338001E-07  0.204621870913E-07  0.218145821115E-07  0.232563601614E-07
  0.247934287797E-07  0.264320859486E-07  0.281790458988E-07  0.300414666206E-07  0.320269791933E-07
  0.341437190520E-07  0.364003593228E-07  0.388061463588E-07  0.413709376273E-07  0.441052420987E-07
  0.470202633068E-07  0.501279452535E-07  0.534410213484E-07  0.569730665826E-07  0.607385531508E-07
  0.647529097496E-07  0.690325847952E-07  0.735951138186E-07  0.784591913161E-07  0.836447473480E-07
  0.891730291995E-07  0.950666884399E-07  0.101349873735E-06  0.108048329792E-06  0.115189502849E-06
  0.122802653130E-06  0.130918974738E-06  0.139571723468E-06  0.148796353069E-06  0.158630660513E-06
  0.169114940864E-06  0.180292152382E-06  0.192208092539E-06  0.204911585673E-06  0.218454683038E-06
  0.232892876075E-06  0.248285323789E-06  0.264695095142E-06  0.282189427474E-06  0.300840001996E-06
  0.320723237502E-06  0.341920603483E-06  0.364518953939E-06  0.388610883254E-06  0.414295105595E-06
  0.441676859374E-06  0.470868338459E-06  0.501989151870E-06  0.535166813865E-06  0.570537266416E-06
  0.608245436214E-06  0.648445828489E-06  0.691303160077E-06  0.736993034328E-06  0.785702660620E-06
  0.837631621425E-06  0.892992690074E-06  0.952012702569E-06  0.101493348702E-05  0.108201285448E-05
  0.115352565535E-05  0.122976490546E-05  0.131104298675E-05  0.139769292712E-05  0.149006976507E-05
  0.158855200431E-05  0.169354316471E-05  0.180547343565E-05  0.192480143859E-05  0.205201610629E-05
  0.218763868610E-05  0.233222487565E-05  0.248636709980E-05  0.265069693796E-05  0.282588771188E-05
  0.301265724447E-05  0.321177080097E-05  0.342404422444E-05  0.365034727858E-05  0.389160721135E-05
  0.414881255422E-05  0.442301717247E-05  0.471534458315E-05  0.502699255846E-05  0.535923803333E-05
  0.571344233734E-05  0.609105677245E-05  0.649362855934E-05  0.692280717667E-05  0.738035111940E-05
  0.786813510369E-05  0.838815774798E-05  0.894254976166E-05  0.953358267495E-05  0.101636781457E-04
  0.108354178813E-04  0.115515542160E-04  0.123150213878E-04  0.131289475601E-04  0.139966676378E-04
  0.149217369309E-04  0.159079457200E-04  0.169593347858E-04  0.180802119634E-04  0.192751697912E-04
  0.205491043265E-04  0.219072352033E-04  0.233551270167E-04  0.248987121199E-04  0.265443149270E-04
  0.282986778227E-04  0.301689887835E-04  0.321629108238E-04  0.342886133879E-04  0.365548058163E-04
  0.389707730229E-04  0.415464135291E-04  0.442922800118E-04  0.472196225294E-04  0.503404346035E-04
  0.536675023459E-04  0.572144568296E-04  0.609958299212E-04  0.650271137995E-04  0.693248244075E-04
  0.739065690940E-04  0.787911187243E-04  0.839984845528E-04  0.895500001730E-04  0.954684088797E-04
  0.101777956800E-03  0.108504492175E-03  0.115675571195E-03  0.123320570828E-03  0.131470809091E-03
  0.140159673263E-03  0.149422756567E-03  0.159298003866E-03  0.169825866983E-03  0.181049470266E-03
  0.193014787078E-03  0.205770827941E-03  0.219369841081E-03  0.233867526213E-03  0.249323262419E-03
  0.265800351063E-03  0.283366274715E-03  0.302092973158E-03  0.322057137576E-03  0.343340524143E-03
  0.366030288277E-03  0.390219340904E-03  0.416006728205E-03  0.443498036363E-03  0.472805822961E-03
  0.504050076779E-03  0.537358707842E-03  0.572868069718E-03  0.610723516157E-03  0.651079994330E-03
  0.694102677060E-03  0.739967636588E-03  0.788862562582E-03  0.840987527292E-03  0.896555800898E-03
  0.955794720336E-03  0.101894661508E-02  0.108626979357E-02  0.115803959421E-02  0.123454950519E-02
  0.131611235746E-02  0.140306159571E-02  0.149575263234E-02  0.159456428970E-02  0.169990033639E-02
  0.181219112366E-02  0.193189532813E-02  0.205950180789E-02  0.219553157905E-02  0.234053992038E-02
  0.249511861438E-02  0.265989833307E-02  0.283555117796E-02  0.302279338371E-02  0.322238819574E-02
  0.343514893276E-02  0.366194224556E-02  0.390369158438E-02  0.416138088748E-02  0.443605850474E-02
  0.472884137039E-02  0.504091944006E-02  0.537356040804E-02  0.572811472152E-02  0.610602090941E-02
  0.650881124425E-02  0.693811775662E-02  0.739567862243E-02  0.788334494442E-02  0.840308795009E-02
  0.895700662925E-02  0.954733583553E-02  0.101764548768E-01  0.108468966206E-01  0.115613571417E-01
  0.123227059388E-01  0.131339967504E-01  0.139984789971E-01  0.149196098811E-01  0.159010671738E-01
  0.169467627192E-01  0.180608566867E-01  0.192477726008E-01  0.205122131782E-01  0.218591770008E-01
  0.232939760518E-01  0.248222541397E-01  0.264500062330E-01  0.281835987259E-01  0.300297906490E-01
  0.319957558376E-01  0.340891060597E-01  0.363179151034E-01  0.386907438104E-01  0.412166660354E-01
  0.439052954959E-01  0.467668134660E-01  0.498119972483E-01  0.530522493402E-01  0.564996271879E-01
  0.601668733965E-01  0.640674462330E-01  0.682155502274E-01  0.726261666365E-01  0.773150834915E-01
  0.822989249006E-01  0.875951792194E-01  0.932222256414E-01  0.991993586840E-01  0.105546809969E+00
  0.112285766603E+00  0.119438385365E+00  0.127027801794E+00  0.135078133150E+00  0.143614474080E+00
  0.152662883674E+00  0.162250362439E+00  0.172404817533E+00  0.183155014406E+00  0.194530512822E+00
  0.206561584969E+00  0.219279113180E+00  0.232714464538E+00  0.246899339368E+00  0.261865590431E+00
  0.277645009320E+00  0.294269076406E+00  0.311768670394E+00  0.330173733439E+00  0.349512887580E+00
  0.369812998225E+00  0.391098680401E+00  0.413391743615E+00  0.436710571437E+00  0.461069432343E+00
  0.486477718985E+00  0.512939113975E+00  0.540450681460E+00  0.569001885335E+00  0.598573536923E+00
  0.629136677410E+00  0.660651403367E+00  0.693065647246E+00  0.726313929061E+00  0.760316100401E+00
  0.794976107596E+00  0.830180807236E+00  0.865798874248E+00  0.901679850249E+00  0.937653387741E+00
  0.973528753517E+00  0.100909466207E+01  0.104411951616E+01  0.107835213614E+01  0.111152306149E+01
  0.114334650538E+01  0.117352303540E+01  0.120174303766E+01  0.122769099733E+01  0.125105059168E+01
  0.127151054192E+01  0.128877110390E+01  0.130255099418E+01  0.131259444621E+01  0.131867797188E+01
  0.132061626927E+01  0.131826657418E+01  0.131153061019E+01  0.130035316571E+01  0.128471623668E+01
  0.126462765139E+01  0.124010317397E+01  0.121114131230E+01  0.117769048454E+01  0.113960888020E+01
  0.109665770965E+01  0.104880828879E+01  0.996189292695E+00  0.938942443187E+00  0.000000000000E+00
  0.000000000000E+00  0.000000000000E+00  0.000000000000E+00  0.000000000000E+00  0.000000000000E+00
  0.000000000000E+00  0.000000000000E+00  0.000000000000E+00  0.000000000000E+00  0.000000000000E+00
  0.000000000000E+00  0.000000000000E+00  0.000000000000E+00  0.000000000000E+00  0.000000000000E+00
  0.000000000000E+00  0.000000000000E+00  0.000000000000E+00  0.000000000000E+00  0.000000000000E+00
  0.000000000000E+00  0.000000000000E+00  0.000000000000E+00  0.000000000000E+00  0.000000000000E+00
  0.000000000000E+00  0.000000000000E+00  0.000000000000E+00  0.000000000000E+00  0.000000000000E+00
  0.000000000000E+00  0.000000000000E+00  0.000000000000E+00  0.000000000000E+00  0.000000000000E+00
  0.000000000000E+00  0.000000000000E+00  0.000000000000E+00  0.000000000000E+00  0.000000000000E+00
  0.000000000000E+00  0.000000000000E+00  0.000000000000E+00  0.000000000000E+00  0.000000000000E+00
  0.000000000000E+00  0.000000000000E+00  0.000000000000E+00  0.000000000000E+00  0.000000000000E+00
 ae wavefunction
 -0.622189143390E-06 -0.659970896281E-06 -0.699852829513E-06 -0.741963237498E-06 -0.786437784926E-06
 -0.833419970266E-06 -0.883061618416E-06 -0.935523393370E-06 -0.990975358700E-06 -0.104959755503E-05
 -0.111158062668E-05 -0.117712648037E-05 -0.124644898485E-05 -0.131977471529E-05 -0.139734374661E-05
 -0.147941048955E-05 -0.156624458588E-05 -0.165813185676E-05 -0.175537530940E-05 -0.185829620861E-05
 -0.196723521681E-05 -0.208255360386E-05 -0.220463453334E-05 -0.233388443232E-05 -0.247073444537E-05
 -0.261564198249E-05 -0.276909236421E-05 -0.293160057190E-05 -0.310371310903E-05 -0.328600998188E-05
 -0.347910680400E-05 -0.368365703963E-05 -0.390035438503E-05 -0.412993530646E-05 -0.437318173809E-05
 -0.463092395399E-05 -0.490404362376E-05 -0.519347706440E-05 -0.550021870087E-05 -0.582532474940E-05
 -0.616991713737E-05 -0.653518767489E-05 -0.692240249594E-05 -0.733290678512E-05 -0.776812980837E-05
 -0.822959026895E-05 -0.871890200811E-05 -0.923778007361E-05 -0.978804717860E-05 -0.103716405819E-04
 -0.109906194058E-04 -0.116471724289E-04 -0.123436263873E-04 -0.130824548005E-04 -0.138662873815E-04
 -0.146979200383E-04 -0.155803255378E-04 -0.165166648444E-04 -0.175102992003E-04 -0.185648029796E-04
 -0.196839773743E-04 -0.208718649655E-04 -0.221327652308E-04 -0.234712510538E-04 -0.248921862999E-04
 -0.264007445195E-04 -0.280024288725E-04 -0.297030933001E-04 -0.315089651204E-04 -0.334266690074E-04
 -0.354632525628E-04 -0.376262135224E-04 -0.399235287060E-04 -0.423636848099E-04 -0.449557112159E-04
 -0.477092148710E-04 -0.506344174242E-04 -0.537421947282E-04 -0.570441188837E-04 -0.605525029628E-04
 -0.642804486126E-04 -0.682418966582E-04 -0.724516809980E-04 -0.769255858807E-04 -0.816804068619E-04
 -0.867340156291E-04 -0.921054289652E-04 -0.978148820727E-04 -0.103883906577E-03 -0.110335413445E-03
 -0.117193781188E-03 -0.124484949615E-03 -0.132236519532E-03 -0.140477858711E-03 -0.149240214552E-03
 -0.158556833829E-03 -0.168463089950E-03 -0.178996618219E-03 -0.190197459555E-03 -0.202108213196E-03
 -0.214774198959E-03 -0.228243629580E-03 -0.242567793794E-03 -0.257801250787E-03 -0.274002036669E-03
 -0.291231883727E-03 -0.309556453249E-03 -0.329045582600E-03 -0.349773547532E-03 -0.371819340562E-03
 -0.395266966332E-03 -0.420205755030E-03 -0.446730694803E-03 -0.474942784358E-03 -0.504949406912E-03
 -0.536864726569E-03 -0.570810108652E-03 -0.606914565080E-03 -0.645315226388E-03 -0.686157841803E-03
 -0.729597308900E-03 -0.775798234575E-03 -0.824935528921E-03 -0.877195033884E-03 -0.932774188553E-03
 -0.991882732983E-03 -0.105474345268E-02 -0.112159296579E-02 -0.119268255528E-02 -0.126827904838E-02
 -0.134866574566E-02 -0.143414340225E-02 -0.152503126386E-02 -0.162166816012E-02 -0.172441365810E-02
 -0.183364927884E-02 -0.194977977983E-02 -0.207323450640E-02 -0.220446881517E-02 -0.234396557271E-02
 -0.249223673265E-02 -0.264982499444E-02 -0.281730554724E-02 -0.299528790219E-02 -0.318441781654E-02
 -0.338537931290E-02 -0.359889679727E-02 -0.382573727891E-02 -0.406671269558E-02 -0.432268234733E-02
 -0.459455544192E-02 -0.488329375500E-02 -0.518991440768E-02 -0.551549276434E-02 -0.586116545288E-02
 -0.622813350944E-02 -0.661766564944E-02 -0.703110166603E-02 -0.746985595686E-02 -0.793542117931E-02
 -0.842937203381E-02 -0.895336917403E-02 -0.950916324210E-02 -0.100985990257E-01 -0.107236197336E-01
 -0.113862713837E-01 -0.120887072979E-01 -0.128331926962E-01 -0.136221093793E-01 -0.144579604898E-01
 -0.153433753387E-01 -0.162811142815E-01 -0.172740736264E-01 -0.183252905554E-01 -0.194379480343E-01
 -0.206153796866E-01 -0.218610746020E-01 -0.231786820471E-01 -0.245720160418E-01 -0.260450597612E-01
 -0.276019697181E-01 -0.292470796770E-01 -0.309849042450E-01 -0.328201420804E-01 -0.347576786530E-01
 -0.368025884855E-01 -0.389601367993E-01 -0.412357804785E-01 -0.436351682639E-01 -0.461641400776E-01
 -0.488287253717E-01 -0.516351403914E-01 -0.545897842266E-01 -0.576992335279E-01 -0.609702357449E-01
 -0.644097007460E-01 -0.680246906603E-01 -0.718224077858E-01 -0.758101803875E-01 -0.799954462126E-01
 -0.843857335345E-01 -0.889886395357E-01 -0.938118058305E-01 -0.988628909250E-01 -0.104149539407E+00
 -0.109679347658E+00 -0.115459825873E+00 -0.121498356179E+00 -0.127802146651E+00 -0.134378181011E+00
 -0.141233163829E+00 -0.148373461031E+00 -0.155805035554E+00 -0.163533377992E+00 -0.171563432104E+00
 -0.179899515080E+00 -0.188545232498E+00 -0.197503387930E+00 -0.206775887197E+00 -0.216363637340E+00
 -0.226266440388E+00 -0.236482882102E+00 -0.247010215914E+00 -0.257844242355E+00 -0.268979184376E+00
 -0.280407559009E+00 -0.292120045974E+00 -0.304105353937E+00 -0.316350085257E+00 -0.328838600259E+00
 -0.341552882237E+00 -0.354472404613E+00 -0.367574001905E+00 -0.380831746366E+00 -0.394216832294E+00
 -0.407697469994E+00 -0.421238791185E+00 -0.434802766820E+00 -0.448348137397E+00 -0.461830354006E+00
 -0.475201526651E+00 -0.488410374923E+00 -0.501402175934E+00 -0.514118706427E+00 -0.526498180561E+00
 -0.538475191693E+00 -0.549980673728E+00 -0.560941903274E+00 -0.571282565985E+00 -0.580922905752E+00
 -0.589779966207E+00 -0.597767918925E+00 -0.604798461592E+00 -0.610781264099E+00 -0.615624444604E+00
 -0.619235067612E+00 -0.621519663809E+00 -0.622384776694E+00 -0.621737540438E+00 -0.619486291092E+00
 -0.615541210337E+00 -0.609814998386E+00 -0.602223571695E+00 -0.592686780780E+00 -0.581129143417E+00
 -0.567480589539E+00 -0.551677213854E+00 -0.533662032952E+00 -0.513385743651E+00 -0.490807479052E+00
 -0.465895558562E+00 -0.438628227762E+00 -0.408994382908E+00 -0.376994274340E+00 -0.342640181480E+00
 -0.305957051171E+00 -0.266983088995E+00 -0.225770292664E+00 -0.182384913883E+00 -0.136907835557E+00
 -0.894348501678E-01 -0.400768265781E-01  0.110402447828E-01  0.637753339885E-01  0.117972580750E+00
  0.173461624007E+00  0.230058041059E+00  0.287563886625E+00  0.345768333829E+00  0.404448447852E+00
  0.463370173098E+00  0.522289691086E+00  0.580955390184E+00  0.639110741224E+00  0.696498207271E+00
  0.752863672422E+00  0.807959512769E+00  0.861543023009E+00  0.913367704986E+00  0.963169996476E+00
  0.101066037269E+01  0.105552706772E+01  0.109745062463E+01  0.113611930597E+01  0.117123823165E+01
  0.120253248653E+01  0.122974756958E+01  0.125264964041E+01  0.127102641637E+01  0.128468869128E+01
  0.129347214312E+01  0.129723906855E+01  0.129587975619E+01  0.128931332805E+01  0.127748797092E+01
  0.126038056419E+01  0.123799575521E+01  0.121036454995E+01  0.117754250039E+01  0.113960756600E+01
  0.109665770965E+01  0.104880828879E+01  0.996189292695E+00  0.938942443187E+00  0.000000000000E+00
  0.000000000000E+00  0.000000000000E+00  0.000000000000E+00  0.000000000000E+00  0.000000000000E+00
  0.000000000000E+00  0.000000000000E+00  0.000000000000E+00  0.000000000000E+00  0.000000000000E+00
  0.000000000000E+00  0.000000000000E+00  0.000000000000E+00  0.000000000000E+00  0.000000000000E+00
  0.000000000000E+00  0.000000000000E+00  0.000000000000E+00  0.000000000000E+00  0.000000000000E+00
  0.000000000000E+00  0.000000000000E+00  0.000000000000E+00  0.000000000000E+00  0.000000000000E+00
  0.000000000000E+00  0.000000000000E+00  0.000000000000E+00  0.000000000000E+00  0.000000000000E+00
  0.000000000000E+00  0.000000000000E+00  0.000000000000E+00  0.000000000000E+00  0.000000000000E+00
  0.000000000000E+00  0.000000000000E+00  0.000000000000E+00  0.000000000000E+00  0.000000000000E+00
  0.000000000000E+00  0.000000000000E+00  0.000000000000E+00  0.000000000000E+00  0.000000000000E+00
  0.000000000000E+00  0.000000000000E+00  0.000000000000E+00  0.000000000000E+00  0.000000000000E+00
 End of Dataset
